%%MatrixMarket matrix coordinate pattern symmetric
557 557 715
47 1
121 2
465 3
160 4
356 5
91 6
317 6
168 7
174 7
257 7
339 7
534 7
438 8
352 9
23 10
476 11
309 12
112 13
280 14
412 14
541 14
64 15
488 15
404 16
547 17
33 18
46 19
158 19
419 20
498 20
312 21
140 22
278 22
28 24
64 24
75 24
99 24
156 24
188 24
255 24
289 24
304 24
442 24
465 24
488 24
457 25
437 26
349 27
64 28
79 28
251 28
275 28
289 28
304 28
322 28
465 28
488 28
293 29
207 30
97 31
190 31
179 32
547 32
276 33
465 34
424 35
487 35
471 36
59 37
58 38
66 38
98 38
117 38
138 38
183 38
194 38
212 38
239 38
264 38
270 38
415 38
448 38
532 38
545 38
552 38
105 39
293 39
429 39
510 39
234 40
245 40
362 40
150 41
124 42
309 42
45 43
479 44
130 46
425 46
122 47
125 47
135 47
201 47
314 47
375 47
388 47
393 47
465 47
502 47
530 47
483 48
342 49
153 50
242 50
495 50
347 51
351 51
454 52
474 53
193 54
168 55
257 55
339 55
64 56
104 56
275 56
289 56
304 56
488 56
148 57
66 58
98 58
117 58
138 58
183 58
194 58
212 58
239 58
264 58
270 58
415 58
448 58
532 58
545 58
552 58
295 60
483 61
483 62
281 63
402 63
482 63
104 64
156 64
188 64
255 64
289 64
292 64
422 64
442 64
488 64
503 64
293 65
98 66
117 66
183 66
194 66
212 66
239 66
270 66
415 66
448 66
532 66
545 66
433 67
80 68
490 69
548 69
211 70
378 70
189 71
230 71
341 71
95 72
309 73
180 74
222 74
192 75
181 76
542 77
169 78
218 78
106 80
328 81
96 82
231 82
308 82
354 82
376 82
414 82
450 82
517 82
472 83
386 84
94 85
293 85
331 85
465 85
94 86
208 87
367 87
417 87
456 87
465 87
486 87
124 88
381 89
472 90
483 92
483 93
259 94
293 94
359 94
427 94
308 96
354 96
376 96
414 96
450 96
517 96
190 97
117 98
138 98
183 98
194 98
212 98
239 98
264 98
270 98
415 98
448 98
532 98
545 98
552 98
152 99
255 99
465 99
463 100
483 101
465 102
321 103
439 103
275 104
304 104
322 104
465 104
488 104
118 106
235 106
244 106
465 106
108 107
483 109
411 110
206 111
483 113
151 114
491 114
173 115
396 115
414 116
183 117
194 117
212 117
239 117
270 117
415 117
448 117
532 117
545 117
244 118
518 118
496 119
154 120
127 122
152 122
233 123
139 124
231 125
368 125
375 125
318 126
335 128
326 129
158 130
425 130
420 131
533 132
143 133
247 133
309 134
338 134
416 134
469 134
497 134
516 134
547 134
350 135
360 136
407 136
455 136
378 137
194 138
212 138
239 138
264 138
270 138
415 138
448 138
532 138
545 138
552 138
309 139
441 139
479 139
278 140
440 141
268 142
146 144
271 144
393 144
298 145
293 147
331 147
446 147
465 147
380 148
465 148
167 149
244 149
524 150
491 151
204 152
237 152
373 152
300 154
176 155
237 156
255 156
261 157
198 158
305 158
340 158
484 158
483 159
197 160
272 160
345 160
475 160
452 161
304 162
181 163
214 163
501 164
554 165
344 166
174 168
219 168
257 168
311 168
339 168
423 168
462 168
534 168
551 168
218 169
365 170
483 170
505 171
225 172
267 172
361 172
435 172
519 172
339 174
462 174
534 174
555 174
533 175
369 177
508 177
260 178
214 181
211 182
378 182
194 183
212 183
239 183
270 183
415 183
448 183
532 183
545 183
434 184
483 185
483 186
290 187
235 188
488 188
230 189
341 189
283 191
212 194
239 194
264 194
270 194
415 194
448 194
532 194
545 194
552 194
464 195
465 196
200 197
232 197
246 197
273 197
296 197
363 197
543 199
345 200
475 200
546 202
455 203
428 204
265 205
277 207
410 207
451 207
465 207
367 208
486 208
240 209
272 209
513 209
393 210
378 211
239 212
264 212
270 212
415 212
448 212
532 212
545 212
552 212
458 213
504 213
483 215
453 216
220 217
257 219
311 219
334 219
339 219
462 219
534 219
551 219
529 221
257 223
339 223
462 223
534 223
536 224
519 225
285 226
432 226
430 227
455 228
426 229
341 230
354 231
368 231
376 231
414 231
517 231
345 232
475 232
528 236
252 238
483 238
264 239
270 239
415 239
448 239
532 239
545 239
552 239
399 240
459 241
506 242
550 243
329 248
499 248
444 249
296 250
275 251
309 253
375 254
542 256
311 257
534 257
551 257
555 257
390 258
331 259
323 261
391 261
485 261
272 262
392 263
270 264
415 264
448 264
532 264
545 264
552 264
469 266
421 268
372 269
415 270
448 270
532 270
545 270
552 270
324 272
325 272
399 272
436 272
393 274
289 275
304 275
297 279
412 280
541 280
402 281
389 282
376 284
368 285
293 286
479 287
554 288
304 289
422 289
442 289
526 289
511 290
306 291
488 292
327 293
418 293
443 293
509 293
483 294
345 296
475 296
495 298
377 299
344 301
303 302
322 304
422 304
442 304
309 307
354 308
376 308
414 308
450 308
517 308
469 309
497 309
531 309
547 309
467 310
534 311
520 313
557 313
483 315
452 316
468 319
556 320
503 321
348 327
479 330
449 331
535 332
512 333
339 334
534 334
551 334
555 334
362 336
510 337
462 339
534 339
551 339
466 341
460 343
494 344
510 344
537 344
543 344
363 345
523 346
512 353
376 354
414 354
450 354
517 354
465 355
486 356
492 357
383 358
366 360
455 360
475 363
457 364
455 366
486 367
517 368
515 370
483 371
428 373
409 374
455 374
414 376
450 376
517 376
394 378
445 378
476 379
387 382
400 382
406 382
403 384
481 384
549 385
525 395
465 397
478 398
406 400
550 401
482 402
481 403
494 405
455 407
438 408
541 412
489 413
450 414
448 415
532 415
545 415
552 415
516 416
494 418
498 419
488 422
462 423
534 423
536 425
540 427
457 431
447 438
470 438
477 438
514 438
457 440
547 441
488 442
532 448
545 448
552 448
469 449
461 455
507 455
553 455
542 457
465 460
534 462
551 462
555 462
465 464
486 465
493 465
479 469
474 473
497 479
522 479
547 479
539 480
503 488
544 494
506 495
547 500
557 500
527 503
523 506
547 521
554 526
545 532
552 532
551 534
555 534
542 538
552 545
557 547
