%%MatrixMarket matrix coordinate pattern symmetric
4815 4815 13851
205 1
320 1
568 1
814 1
975 1
1886 1
2617 1
2872 1
3124 1
4291 1
4490 1
2872 2
2872 3
3838 3
2306 4
4223 4
23 5
377 5
1288 5
3046 5
4014 5
261 6
955 7
2872 7
946 8
2274 8
2617 8
3658 8
3101 9
2414 10
3644 11
4688 11
388 12
699 12
2448 12
2972 12
3506 12
2882 13
1226 14
2380 14
3256 14
3177 15
4664 15
1169 16
3506 16
2617 17
2872 18
882 19
4200 19
1631 20
2099 20
3743 20
2872 21
1366 22
1713 22
2248 22
2526 22
1341 23
3110 23
4059 24
1199 25
2929 26
4044 26
804 27
3538 27
2872 28
63 29
46 30
100 30
104 30
150 30
157 30
202 30
268 30
288 30
810 30
862 30
874 30
896 30
943 30
1045 30
1133 30
1312 30
1319 30
1576 30
1613 30
1623 30
1677 30
2061 30
2084 30
2101 30
2120 30
2872 30
2997 30
3292 30
3358 30
3437 30
3534 30
3650 30
4010 30
4310 30
4402 30
4440 30
4544 30
4766 30
511 31
1092 31
1157 31
1554 31
2681 31
2713 31
2719 31
3588 31
4415 31
4631 31
4799 31
237 32
3775 33
1338 34
3596 34
4604 34
598 35
2258 35
2872 35
3369 36
3689 36
3889 36
3970 36
3114 37
2872 38
4372 38
451 39
1115 39
1282 39
1887 39
2766 39
2927 39
4263 39
678 40
839 40
1338 40
2112 40
3933 40
4648 41
2662 42
1335 43
3566 44
729 45
1418 45
1478 45
3049 45
3118 45
3663 45
3664 45
3921 45
3936 45
4659 45
100 46
104 46
150 46
157 46
179 46
202 46
268 46
288 46
810 46
862 46
874 46
883 46
896 46
943 46
1133 46
1312 46
1319 46
1613 46
1677 46
1762 46
2061 46
2084 46
2101 46
2120 46
2872 46
2997 46
3292 46
3358 46
3437 46
3534 46
3650 46
4010 46
4310 46
4402 46
4440 46
4544 46
524 47
1046 47
1364 47
1918 47
2621 47
3638 47
814 48
1578 48
2270 48
2656 48
2989 48
3124 48
3808 48
3035 49
220 50
594 50
1075 50
1318 50
1384 50
1436 50
1527 50
1664 50
1775 50
2123 50
2220 50
2253 50
2407 50
2430 50
3070 50
3485 50
3791 50
4055 50
4081 50
4111 50
4346 50
4578 50
526 51
2872 52
1018 53
325 54
571 54
821 54
1047 54
1518 54
1859 54
2779 54
2872 54
3098 54
3460 54
3513 54
3684 54
4080 54
4454 54
4517 54
4660 54
2407 55
4578 55
313 56
2872 56
3496 56
490 57
203 58
1822 58
640 59
3566 59
4531 59
1606 60
2737 60
4509 60
386 61
1802 61
1936 61
3579 61
3701 61
139 62
252 62
1118 62
1806 62
2170 62
2256 62
2497 62
2872 62
3197 62
3199 62
3261 62
3482 62
4044 62
4178 62
4660 62
4699 62
2559 63
2683 63
3468 63
4334 64
2872 65
903 66
2872 66
3327 66
3760 66
4031 66
4757 67
2116 68
2835 68
3268 68
2989 69
1142 70
2752 70
2839 70
2872 70
3156 70
3316 70
3664 70
3755 70
4374 71
2410 72
1530 73
1854 73
2570 73
2723 73
3350 73
3423 73
4103 73
245 74
371 74
627 74
1313 74
1335 74
1532 74
1712 74
1750 74
1884 74
2016 74
2057 74
2117 74
2284 74
2354 74
2716 74
2795 74
2872 74
2878 74
2903 74
2910 74
2911 74
2912 74
2913 74
2953 74
3020 74
3417 74
3543 74
3669 74
3685 74
3712 74
3939 74
4107 74
4110 74
4154 74
4163 74
4311 74
4392 74
4543 74
4633 74
4653 74
4668 74
4676 74
4682 74
4686 74
4778 74
4793 74
4795 74
4808 74
403 75
3432 76
3566 77
761 78
2127 78
2479 78
3689 78
2384 79
2769 79
4314 79
2437 80
2615 80
131 81
384 81
549 81
2349 81
3018 81
3994 81
3393 82
3561 82
1290 83
245 84
289 84
651 84
681 84
811 84
974 84
1368 84
1532 84
1629 84
1638 84
1750 84
2013 84
2057 84
2071 84
2128 84
2354 84
2714 84
2736 84
2872 84
2878 84
2905 84
2906 84
2907 84
2908 84
2910 84
2914 84
3252 84
3291 84
3510 84
3566 84
3595 84
3685 84
3715 84
4053 84
4107 84
4110 84
4119 84
4173 84
4311 84
4333 84
4339 84
4373 84
4436 84
4464 84
4573 84
4731 84
910 85
1766 86
4042 86
1274 87
1531 87
1976 87
2563 87
3869 87
4713 87
2872 88
1169 89
1953 90
326 91
3504 91
4763 92
120 93
205 93
320 93
321 93
435 93
487 93
524 93
929 93
956 93
1029 93
1265 93
1282 93
1371 93
1381 93
1540 93
1591 93
1599 93
1818 93
1886 93
1919 93
1943 93
2006 93
2092 93
2324 93
2458 93
2501 93
2582 93
2617 93
2720 93
2752 93
2757 93
2852 93
2872 93
3091 93
3098 93
3130 93
3594 93
3664 93
3892 93
4108 93
4168 93
4202 93
4205 93
4263 93
4271 93
4422 93
4561 93
4583 93
4602 93
4713 93
508 94
677 94
834 94
1463 94
3508 94
3943 94
4701 94
3602 95
2872 96
369 97
422 97
524 97
1241 97
1364 97
1826 97
1997 97
3572 97
2872 98
666 99
1142 99
1835 99
2219 99
2485 99
2637 99
2824 99
3077 99
3091 99
3316 99
3654 99
3795 99
3970 99
104 100
202 100
268 100
664 100
862 100
874 100
943 100
1133 100
1576 100
1613 100
1677 100
1762 100
1930 100
2061 100
2084 100
2101 100
2872 100
2997 100
3292 100
3437 100
3534 100
3650 100
4310 100
4402 100
4440 100
4544 100
331 101
1625 101
1929 101
2872 101
3282 101
4529 101
169 102
875 102
1105 102
1150 102
1220 102
1290 102
2189 102
2727 102
2752 102
2872 102
2890 102
3892 102
4365 102
237 103
3328 103
150 104
179 104
202 104
268 104
288 104
583 104
810 104
862 104
874 104
883 104
896 104
943 104
1133 104
1312 104
1319 104
1576 104
1613 104
1623 104
1677 104
1762 104
2061 104
2084 104
2101 104
2120 104
2872 104
2997 104
3292 104
3358 104
3437 104
3534 104
3650 104
4310 104
4402 104
4440 104
4544 104
1455 105
3106 105
927 106
1462 106
3480 106
639 107
3869 107
2872 108
3553 109
139 110
345 110
1335 110
1369 110
1454 110
2448 110
2872 110
3506 110
199 111
235 111
445 111
1070 111
1688 111
1818 111
1858 111
1888 111
2089 111
2162 111
2208 111
2274 111
2395 111
2470 111
2820 111
2872 111
2958 111
3612 111
3613 111
3658 111
3698 111
3826 111
4203 111
4447 111
4459 111
4654 111
4715 111
4802 111
4064 112
2034 113
3689 114
3970 114
2872 115
3447 115
1044 116
229 117
2872 117
3104 117
3566 117
3641 117
3884 118
229 119
506 119
518 119
652 119
1240 119
1336 119
1813 119
1862 119
1922 119
1969 119
2247 119
2811 119
2872 119
3566 119
3952 119
4427 119
4526 119
4677 119
4803 119
366 120
460 120
467 120
617 120
633 120
1004 120
1010 120
1289 120
1290 120
1432 120
1481 120
1870 120
1954 120
2050 120
2681 120
2777 120
2872 120
3196 120
3552 120
3594 120
3838 120
3893 120
4007 120
4077 120
4243 120
4634 120
4685 120
285 121
877 122
1113 122
1980 122
2394 122
2872 122
3700 122
2862 123
135 124
646 124
1494 124
3107 124
3304 124
404 125
785 125
894 125
2872 125
4193 125
2872 126
1282 127
2391 127
3663 127
607 128
1873 128
2507 128
2170 129
195 130
369 130
422 130
428 130
934 130
1099 130
1163 130
1997 130
2872 130
3176 130
3687 130
384 131
462 131
1184 131
1617 131
1692 131
2237 131
2418 131
2872 131
3018 131
3536 131
3686 131
3994 131
4215 131
4642 131
3362 132
3794 132
366 133
1522 133
1549 133
2683 133
2976 133
3460 133
1288 134
2872 134
2923 134
3566 134
4729 134
2606 135
216 136
579 136
669 136
911 136
2077 136
2558 136
3215 136
3452 136
3665 136
3932 136
4557 136
4656 136
4689 136
2872 137
314 138
1707 138
2829 138
3701 138
3913 138
3914 138
388 139
611 139
665 139
734 139
748 139
1118 139
1369 139
1454 139
1614 139
1772 139
1855 139
2448 139
2872 139
3055 139
3512 139
3686 139
3753 139
4086 139
4222 139
4266 139
4700 139
4721 139
229 140
544 140
2289 140
2619 140
3368 140
1214 141
1505 141
2129 142
821 143
1859 143
2027 143
3110 143
169 144
223 144
1411 144
1784 144
2872 144
3236 144
3274 144
4036 144
493 145
2118 145
2361 146
1381 147
2713 147
2872 148
424 149
673 149
1135 149
1205 149
2552 149
3157 149
4084 149
157 150
202 150
205 150
268 150
288 150
524 150
810 150
862 150
874 150
896 150
943 150
1045 150
1133 150
1312 150
1319 150
1576 150
1613 150
1677 150
1762 150
2061 150
2084 150
2101 150
2120 150
2872 150
3292 150
3358 150
3534 150
3650 150
4010 150
4310 150
4402 150
4440 150
4544 150
4766 150
2617 151
1290 152
3600 153
2872 154
2175 155
2797 155
4625 155
313 156
388 156
1169 156
1649 156
2022 156
2448 156
2872 156
3124 156
3475 156
3506 156
3513 156
4066 156
4271 156
4503 156
4660 156
4685 156
202 157
268 157
288 157
810 157
862 157
874 157
943 157
1312 157
1319 157
1613 157
1677 157
2061 157
2084 157
2101 157
3112 157
3292 157
4010 157
4310 157
4544 157
1851 158
3566 158
1290 159
1445 159
1798 159
1810 159
2340 159
2408 159
2872 159
3316 159
4123 159
4362 159
4600 159
4638 159
2872 160
2872 161
956 162
1241 162
2496 162
3670 162
843 163
2872 164
1214 165
2872 165
1335 166
2118 166
2516 166
4222 166
4412 166
2872 167
2649 168
223 169
1268 169
1290 169
1356 169
1411 169
1429 169
1547 169
1784 169
2077 169
2617 169
2698 169
2872 169
3046 169
3193 169
3274 169
3499 169
3552 169
3664 169
3946 169
4036 169
4044 169
4273 169
4659 169
222 170
2370 170
3267 171
4234 171
2846 172
4522 172
1917 173
2872 174
2976 174
1422 175
2058 175
3532 175
883 176
2468 176
2872 176
2973 176
3358 176
4529 176
2872 177
375 178
663 178
1084 178
1290 178
1388 178
1635 178
1780 178
2117 178
2161 178
2643 178
3245 178
3278 178
3487 178
3564 178
3637 178
3846 178
4423 178
4576 178
202 179
583 179
767 179
862 179
883 179
896 179
1133 179
1249 179
1613 179
1677 179
1762 179
2061 179
2084 179
2101 179
2132 179
2997 179
3358 179
3437 179
4310 179
4402 179
4440 179
4561 179
1282 180
1887 180
2862 180
3378 180
3953 180
4263 180
4471 180
1057 181
4133 182
1734 183
1760 183
3251 183
3379 184
414 185
1297 186
1935 186
2872 187
930 188
931 188
1503 188
2397 188
2839 188
2872 188
3623 188
229 189
2872 189
201 190
1430 190
1789 190
2020 190
2365 190
2872 191
2872 192
2872 193
2889 193
989 194
422 195
428 195
701 195
762 195
934 195
1104 195
1210 195
1737 195
4475 195
1947 196
2872 196
4070 196
554 197
2248 198
235 199
1345 199
1611 199
1688 199
1858 199
2089 199
2162 199
2208 199
2395 199
2470 199
2820 199
4459 199
1671 200
2199 200
3729 200
3864 200
4076 200
268 202
288 202
583 202
664 202
810 202
862 202
874 202
883 202
896 202
943 202
1133 202
1312 202
1319 202
1576 202
1613 202
1677 202
1762 202
2061 202
2084 202
2101 202
2120 202
2872 202
2997 202
3292 202
3358 202
3437 202
3534 202
3650 202
4310 202
4402 202
4440 202
4544 202
603 203
773 203
1760 203
1822 203
1825 203
2389 203
2872 203
3005 203
3281 203
4022 203
940 204
1305 204
1758 204
1805 204
2063 204
2771 204
2872 204
320 205
530 205
633 205
1290 205
1294 205
1886 205
1954 205
2233 205
2617 205
2673 205
2683 205
2750 205
2764 205
2872 205
3055 205
3132 205
3437 205
3686 205
3724 205
4094 205
4222 205
4602 205
331 206
2936 206
3098 206
1361 207
2318 207
2945 208
887 209
1251 209
2060 209
3940 209
2872 210
1242 211
2341 211
2617 211
2648 211
2847 211
2872 211
3647 211
4149 211
4442 211
2936 212
4648 212
259 213
325 213
1047 213
1816 213
2683 213
2872 213
2976 213
3460 213
2876 214
264 215
579 216
669 216
911 216
2077 216
2558 216
2872 216
3215 216
3452 216
3665 216
3946 216
4557 216
4656 216
4689 216
1478 217
3699 217
3732 218
3931 218
3990 218
479 219
1394 219
1859 219
2153 219
3110 219
770 220
1075 220
1318 220
1384 220
1436 220
1527 220
1664 220
1775 220
2089 220
2220 220
2253 220
2407 220
2416 220
2430 220
2470 220
2872 220
3014 220
3070 220
3323 220
3485 220
3791 220
4055 220
4111 220
4116 220
4297 220
4571 220
350 221
2325 221
1200 222
2216 222
2370 222
3535 222
3611 222
3800 222
3897 222
3954 222
4039 222
4413 222
1262 223
1411 223
1784 223
2208 223
3274 223
3357 223
4036 223
1153 224
1195 224
1659 225
2173 225
2792 225
2872 225
2937 225
3033 225
3042 225
3151 225
3566 225
4075 225
313 226
3496 226
4271 226
1675 227
2019 228
2675 228
2872 228
410 229
544 229
559 229
691 229
798 229
1061 229
1240 229
1336 229
1592 229
1714 229
1813 229
1922 229
1955 229
2012 229
2097 229
2289 229
2352 229
2480 229
2619 229
2642 229
2744 229
2811 229
2921 229
3368 229
3474 229
3567 229
3641 229
3912 229
4048 229
4308 229
4427 229
4526 229
4703 229
2872 230
2872 231
3478 231
3776 231
1757 232
1113 233
1511 233
2716 233
2872 233
3499 233
3566 233
3712 233
3972 233
4392 233
4399 233
4485 233
2872 234
1345 235
2162 235
2208 235
3566 236
1502 237
3131 237
3646 237
3739 237
4023 237
2872 238
3030 238
4426 238
4082 239
3035 240
767 241
1764 241
2410 241
2617 241
2872 241
3513 241
3741 241
4660 241
2872 242
656 243
1371 243
2713 243
2725 243
2777 243
2872 243
2924 243
3988 243
4501 243
1161 244
1821 244
289 245
371 245
651 245
681 245
811 245
974 245
1335 245
1368 245
1511 245
1532 245
1629 245
1638 245
1712 245
1750 245
2013 245
2057 245
2071 245
2128 245
2354 245
2714 245
2736 245
2872 245
2878 245
2905 245
2906 245
2907 245
2908 245
2910 245
2914 245
3252 245
3291 245
3510 245
3595 245
3685 245
3712 245
3715 245
3939 245
3972 245
4053 245
4107 245
4110 245
4119 245
4173 245
4242 245
4311 245
4333 245
4339 245
4373 245
4392 245
4436 245
4464 245
4573 245
4731 245
4778 245
1092 246
1381 246
1012 247
4033 247
1645 248
2440 248
3318 248
3115 249
3394 250
2507 251
2872 251
3046 251
3307 251
955 253
1305 253
2764 253
2872 254
2250 255
1112 256
326 257
486 257
1995 257
2618 257
3906 257
2720 258
1335 259
2617 259
2872 259
3277 260
4229 260
2199 261
2713 261
3163 261
3792 261
4534 261
393 262
926 262
1102 262
2005 262
2424 262
2701 262
2872 262
3324 262
3327 262
3760 262
3898 262
4115 262
4121 262
3542 263
3826 263
4233 263
310 264
3628 264
682 265
1048 265
1448 265
1766 265
2036 265
2142 265
3559 265
3843 265
3890 265
4451 265
439 266
2548 266
3053 266
701 267
1163 267
1634 267
3687 267
4479 267
4487 267
288 268
583 268
810 268
874 268
896 268
943 268
1045 268
1133 268
1312 268
1319 268
1576 268
1613 268
1677 268
1762 268
2061 268
2084 268
2120 268
2872 268
2997 268
3112 268
3292 268
3358 268
3437 268
3534 268
3650 268
4310 268
4402 268
4544 268
4766 268
4770 268
779 269
784 269
824 269
1839 269
1952 269
2023 269
2042 269
2111 269
2553 269
2577 269
2954 269
3213 269
3241 269
3317 269
3432 269
3734 269
4735 269
1144 270
2846 271
3375 271
1045 272
375 273
3231 274
3554 274
1170 275
2872 275
3566 275
4200 275
2713 276
531 277
2753 277
2872 277
3711 277
3871 277
1017 278
1573 278
2872 278
4002 278
2269 279
388 280
634 281
726 281
789 281
1580 281
1598 281
1735 281
1818 281
2194 281
2383 281
2426 281
2447 281
3397 281
3698 281
4108 281
4194 281
4197 281
4775 281
560 282
772 282
1244 282
1646 282
2851 282
4577 282
1223 283
1602 283
1131 284
1064 286
2872 287
810 288
862 288
874 288
896 288
943 288
1133 288
1312 288
1319 288
1576 288
1613 288
1623 288
1677 288
1762 288
2061 288
2084 288
2101 288
2120 288
2872 288
2997 288
3112 288
3292 288
3358 288
3437 288
3534 288
3650 288
3958 288
4010 288
4310 288
4402 288
4440 288
4544 288
4766 288
651 289
681 289
811 289
974 289
1335 289
1368 289
1532 289
1629 289
1638 289
1750 289
2013 289
2057 289
2071 289
2128 289
2354 289
2530 289
2714 289
2736 289
2872 289
2878 289
2905 289
2906 289
2907 289
2908 289
2910 289
2914 289
3252 289
3291 289
3510 289
3566 289
3595 289
3685 289
3715 289
4053 289
4107 289
4110 289
4119 289
4173 289
4311 289
4333 289
4339 289
4373 289
4436 289
4464 289
4573 289
4731 289
3643 290
4461 291
1505 292
1744 292
3714 292
4222 292
1637 293
1305 294
1465 294
1996 294
3063 294
3239 294
3939 294
666 295
2598 295
3077 295
3316 295
3755 295
2872 296
3064 296
2872 297
349 298
933 298
2415 298
2872 298
1637 299
4349 299
445 300
721 300
3280 300
3683 300
3698 300
2872 301
4599 301
2803 302
1601 303
1551 304
3399 304
4486 304
2943 305
668 306
1553 306
1682 306
1804 306
2042 306
3237 306
4021 306
4662 306
2872 307
451 308
1115 308
1282 308
1323 308
1887 308
2581 308
2927 308
1455 309
2723 310
3628 310
2653 311
2872 311
800 312
390 313
1014 313
1029 313
1406 313
1649 313
2501 313
2862 313
2872 313
3496 313
3506 313
3664 313
4271 313
4660 313
3701 314
3913 314
1376 315
4694 316
1277 317
2893 317
3664 317
4637 317
453 318
462 318
1692 318
2872 318
3097 318
3686 318
4222 318
4642 318
4389 319
566 320
719 320
1381 320
1764 320
1886 320
1888 320
1957 320
2617 320
2698 320
2872 320
3445 320
3471 320
3528 320
3566 320
4602 320
345 321
524 321
767 321
1136 321
1212 321
1241 321
1249 321
1453 321
1887 321
2113 321
2448 321
2872 321
3876 321
1227 322
1922 322
1924 322
2811 322
2872 322
3471 322
3566 322
3567 322
4624 322
2287 323
2829 324
4523 324
571 325
769 325
821 325
2118 325
2195 325
2516 325
2872 325
2976 325
2999 325
3110 325
3459 325
3475 325
3684 325
3686 325
4222 325
4412 325
1995 326
3906 326
2872 327
2872 328
3566 328
1546 329
593 330
652 330
744 330
773 330
1197 330
1710 330
1980 330
2017 330
2035 330
3700 330
4794 330
585 331
1779 331
1815 331
1899 331
2228 331
2562 331
2770 331
2776 331
2924 331
2961 331
3098 331
4128 331
4176 331
4354 331
2872 332
1688 333
1869 333
1888 333
2958 333
3612 333
3613 333
4141 333
1059 334
3045 335
1081 336
2122 336
2872 336
3379 336
4094 336
383 337
1666 338
3493 338
2872 339
657 340
813 340
1003 340
1026 340
1663 340
2872 340
3166 340
3840 340
4330 340
2737 341
4370 341
4509 341
1468 342
4009 342
4489 342
1199 343
366 344
388 345
451 345
524 345
716 345
767 345
979 345
1212 345
1241 345
1305 345
1364 345
1369 345
2054 345
2119 345
2872 345
3085 345
3638 345
3753 345
4593 345
571 346
873 346
4080 346
591 347
3381 348
535 349
621 349
867 349
931 349
933 349
2144 349
2229 349
2808 349
2872 349
3855 349
4247 349
4378 349
2325 350
786 351
456 352
779 352
1845 352
2023 352
2577 352
2954 352
3213 352
3237 352
3241 352
3317 352
427 353
2872 353
3032 353
1117 354
1283 354
1773 354
1914 354
2925 354
2952 354
3085 354
3303 355
3524 355
3999 355
1476 356
2872 357
4724 357
1541 358
2385 358
2918 358
3556 358
2872 359
3354 359
2456 360
2872 360
3566 360
4058 360
4636 360
1075 361
2220 361
2430 361
3070 361
3336 361
3469 361
3485 361
3791 361
4081 361
4111 361
4346 361
1024 362
1388 362
3077 362
3170 362
3316 362
3321 362
4518 362
2872 363
388 364
2030 364
3001 364
3702 364
4135 364
4681 364
1254 365
1537 365
1555 365
2527 365
3867 365
4032 365
460 366
617 366
964 366
1010 366
1096 366
1249 366
1290 366
1305 366
1891 366
2050 366
2877 366
2927 366
3087 366
3325 366
3342 366
3591 366
3594 366
4007 366
4295 366
4807 366
3566 367
4342 368
422 369
934 369
1058 369
1099 369
1104 369
1163 369
1210 369
1596 369
1737 369
1997 369
2872 369
3176 369
3687 369
3875 369
3920 369
4475 369
4479 369
2541 370
627 371
1313 371
1335 371
1638 371
1712 371
1750 371
1884 371
2016 371
2057 371
2117 371
2284 371
2530 371
2716 371
2795 371
2872 371
2878 371
2903 371
2907 371
2908 371
2911 371
2912 371
2913 371
2953 371
3020 371
3417 371
3543 371
3669 371
3685 371
3715 371
3939 371
4107 371
4110 371
4154 371
4163 371
4311 371
4543 371
4573 371
4633 371
4653 371
4668 371
4676 371
4682 371
4686 371
4778 371
4793 371
4795 371
4808 371
1826 372
4632 372
556 373
560 373
1646 373
2569 373
2872 373
3388 373
1056 374
2018 374
663 375
1084 375
1224 375
1290 375
1388 375
1487 375
1780 375
1970 375
2010 375
2161 375
2208 375
2454 375
2747 375
2890 375
3245 375
3278 375
3487 375
3509 375
3516 375
3552 375
3637 375
3690 375
3846 375
3860 375
4011 375
4117 375
4156 375
4271 375
4423 375
4646 375
4741 375
4756 375
1579 376
3706 376
685 377
840 377
2377 377
2596 377
3189 377
4341 377
1486 378
2872 378
731 379
877 380
2811 380
3966 380
2064 381
2158 381
2725 381
2872 381
3506 381
3988 381
3625 382
1894 383
1184 384
2149 384
2349 384
2963 384
3536 384
3578 385
3579 386
3701 386
732 387
516 388
629 388
1169 388
1184 388
1204 388
1229 388
1241 388
1369 388
1453 388
1454 388
1616 388
1908 388
2009 388
2076 388
2093 388
2107 388
2113 388
2119 388
2169 388
2448 388
2862 388
2872 388
2874 388
2922 388
2972 388
3100 388
3378 388
3506 388
3686 388
3688 388
3798 388
3805 388
3838 388
3839 388
3916 388
4026 388
4179 388
4279 388
4484 388
4507 388
4565 388
4674 388
4700 388
2872 389
956 390
1282 390
1290 390
2324 390
2458 390
2617 390
2872 390
3091 390
3385 390
3594 390
3664 390
4066 390
4271 390
4422 390
4602 390
4667 390
2872 391
1909 392
743 393
926 393
1102 393
2005 393
2424 393
2872 393
3327 393
3760 393
3898 393
4031 393
4115 393
4121 393
2872 394
406 395
799 395
1216 395
2139 395
2951 395
2987 395
4483 395
1855 396
1282 397
3664 397
3854 397
4263 397
2074 398
576 399
1633 399
1811 399
2604 399
2872 399
3303 399
3524 399
3999 399
1914 400
882 401
1595 401
2443 401
3365 401
4200 401
4617 401
2654 402
2793 402
3349 402
727 403
1242 403
1522 403
2271 403
3460 403
3513 403
4462 403
727 404
785 404
894 404
2872 404
4193 404
3256 405
3758 405
425 406
1168 406
2139 406
2872 406
3876 406
4396 406
4583 406
529 407
905 407
1381 407
1412 407
3314 407
4728 407
1567 408
3537 408
4183 408
2872 409
2619 410
2872 410
2862 411
4681 411
1471 412
639 413
801 413
1065 413
1366 413
2223 413
2357 413
2460 413
3390 413
4366 413
3854 414
1373 415
3610 415
1878 416
1728 417
2744 417
805 418
1034 418
2205 418
2683 418
4347 418
4433 418
3981 419
1005 420
2930 420
4555 421
701 422
762 422
934 422
1099 422
1104 422
1163 422
1210 422
1612 422
1737 422
1997 422
3572 422
3687 422
4475 422
4126 423
4587 423
1135 424
1205 424
3973 424
4162 424
1168 425
2872 425
3876 425
556 426
560 426
658 426
2872 427
3098 427
934 428
1163 428
1210 428
1997 428
3572 428
1867 429
2862 429
4722 429
2872 430
2872 431
2294 432
3566 432
783 433
3121 433
2872 434
3491 436
777 437
1086 438
3970 438
2548 439
2872 439
4055 439
4117 439
2872 440
3565 441
4756 442
1454 443
496 444
571 444
821 444
1335 444
2262 444
2327 444
2511 444
2683 444
2872 444
3475 444
3686 444
4158 444
634 445
721 445
726 445
789 445
913 445
1023 445
1043 445
1186 445
1281 445
1461 445
1477 445
1580 445
1598 445
1626 445
1735 445
1818 445
2162 445
2194 445
2208 445
2383 445
2426 445
2447 445
2666 445
3397 445
3440 445
3652 445
3683 445
3698 445
4108 445
4197 445
4649 445
4775 445
2872 446
1689 447
2872 447
950 448
639 449
2872 450
633 451
1092 451
1130 451
1550 451
1764 451
2049 451
2338 451
2775 451
2872 451
3343 451
3610 451
1763 452
2422 452
2644 452
2872 452
1048 453
1634 453
2418 453
2823 453
2963 453
3408 453
3786 453
4215 453
3667 454
4517 454
3131 455
3739 455
1159 456
1569 456
1845 456
1979 456
2954 456
3317 456
3983 456
4735 456
2872 457
3615 458
1627 459
1010 460
2872 460
1736 461
1471 462
1692 462
2237 462
2963 462
3002 462
3391 462
3686 462
4215 462
4642 462
1029 463
1290 463
2872 464
1029 465
1290 465
2894 465
4398 465
1475 466
2267 466
2473 466
3109 466
1010 467
3187 467
2872 468
3952 469
1118 470
3724 470
4055 471
628 472
1524 472
2784 472
3351 473
3655 474
2872 475
2872 476
1502 477
2068 477
3187 477
3460 477
4204 477
4338 477
3399 478
1394 479
1859 479
2090 479
2153 479
3110 479
738 480
490 481
783 482
3876 482
2872 483
4804 483
3566 484
4592 485
3634 486
1249 487
1424 487
2617 487
3113 487
528 488
3246 489
742 490
2753 490
3138 490
4717 490
1044 491
3296 491
2872 492
3944 492
2872 494
3687 494
3876 494
2220 495
2308 495
2872 495
3336 495
3593 495
4055 495
4092 495
2872 496
3582 496
3733 496
3664 497
2676 498
2872 498
3566 498
506 499
2022 500
2244 500
832 501
1502 501
2070 501
3066 501
3098 501
4432 501
4611 501
4134 502
1936 503
4369 504
3838 505
691 506
1240 506
1336 506
1813 506
2811 506
3042 506
3057 506
3368 506
3641 506
3771 506
4427 506
4526 506
4803 506
666 507
4583 507
834 508
1463 508
3943 508
4413 509
3284 510
581 511
905 511
1077 511
1092 511
1157 511
1373 511
1381 511
1405 511
1469 511
1546 511
1911 511
2179 511
2713 511
2776 511
2872 511
2981 511
3429 511
3766 511
4027 511
4142 511
4276 511
4370 511
4509 511
4612 511
4665 511
3566 512
1568 513
2309 513
2408 513
2872 513
3506 513
3664 513
4252 513
4659 513
2872 514
2164 515
4099 515
1028 517
3633 517
1240 518
1336 518
1813 518
2811 518
4427 518
4526 518
4803 518
2872 519
716 520
730 520
767 520
979 520
1241 520
1364 520
2872 520
4139 520
4495 520
2872 521
819 522
1378 522
1560 522
1696 522
2028 522
2819 522
3043 522
933 523
1652 523
2415 523
716 524
730 524
767 524
859 524
979 524
1029 524
1136 524
1241 524
1290 524
1305 524
1364 524
1369 524
2054 524
2118 524
2872 524
3319 524
3333 524
3541 524
3638 524
3664 524
3876 524
4139 524
4475 524
4561 524
4593 524
1775 525
2253 525
4116 525
4066 526
3485 527
1455 529
3095 529
1029 530
1064 530
1277 530
2872 530
3717 531
1029 532
2872 532
678 533
3102 533
967 534
1329 534
1753 534
2872 534
3044 534
621 535
2144 535
2808 535
2872 535
4247 535
4513 536
1201 537
714 538
882 538
1170 538
1234 538
1676 538
2055 538
2366 538
2443 538
2706 538
2788 538
3365 538
3666 538
3744 538
4200 538
4434 538
4608 538
2192 539
2550 539
3339 539
3356 539
3728 539
4118 539
4515 539
4712 539
2399 540
3097 540
1590 541
1115 542
1169 542
1241 542
1805 542
2063 542
2771 542
2541 543
2872 543
3064 543
691 544
1955 544
2289 544
2619 544
3641 544
2872 545
1902 546
2173 547
2230 547
2872 547
3566 547
1648 548
1307 549
1471 549
2349 549
2412 549
2519 549
2872 549
2965 549
3597 549
3994 549
4066 549
3263 550
816 551
3566 552
1282 553
1536 554
2655 554
2872 554
2971 554
3641 555
658 556
772 556
1311 556
1646 556
1925 556
2584 556
2676 556
3388 556
4577 556
2684 557
2151 558
2872 558
2872 559
658 560
704 560
772 560
1244 560
1311 560
1420 560
1491 560
1646 560
1792 560
1925 560
2569 560
2584 560
3388 560
3478 560
3569 560
4647 560
4796 560
3277 561
1010 562
4426 563
930 564
1407 564
3034 564
3286 564
2583 565
2872 566
4756 567
643 568
737 568
1807 568
1819 568
2333 568
2755 568
2872 568
2667 569
3401 569
3263 570
578 571
802 571
807 571
821 571
1014 571
1047 571
1079 571
1236 571
1522 571
2195 571
2233 571
2446 571
2511 571
2683 571
2779 571
2872 571
2982 571
3110 571
3132 571
3475 571
3513 571
3608 571
3684 571
3784 571
3822 571
4080 571
4243 571
4412 571
4435 571
4660 571
4786 571
1268 572
1290 572
1798 572
2338 572
2564 572
2764 572
2872 573
2872 574
3085 575
666 577
2511 578
2683 578
2872 578
3684 578
4080 578
669 579
911 579
2077 579
2558 579
2872 579
3215 579
3452 579
3665 579
4557 579
4656 579
4689 579
1830 580
1831 580
2059 580
2781 580
2872 580
3935 580
4753 580
1290 582
1305 582
1459 582
2872 582
3087 582
862 583
874 583
896 583
943 583
1133 583
1576 583
1613 583
1677 583
1762 583
2061 583
2084 583
2089 583
2101 583
2162 583
2470 583
2669 583
2997 583
3334 583
3437 583
3534 583
3925 583
4203 583
4226 583
4310 583
4402 583
4440 583
4532 583
4539 583
4628 583
4650 583
4658 583
4679 583
909 584
1940 584
3866 584
4354 585
4432 585
4757 585
4039 586
626 587
661 587
920 587
1458 587
1485 587
3833 587
4767 587
633 588
2338 588
2775 588
2872 588
4298 588
4519 588
1733 589
665 590
4490 590
1291 591
3147 591
3364 591
1044 592
2707 592
652 593
1197 593
1710 593
1862 593
3700 593
3762 593
4513 593
4794 593
1075 594
1318 594
2220 594
2430 594
3070 594
3336 594
3469 594
3485 594
3791 594
4111 594
4346 594
4091 595
2753 596
4023 596
1142 597
1290 597
2412 597
2776 597
3229 597
4066 597
4477 597
4787 597
1071 598
1153 598
2191 598
2258 598
2405 598
2705 598
2872 598
4072 598
4240 599
2872 600
932 601
992 601
1091 601
1329 601
2414 601
2506 601
2872 601
3398 601
956 602
1005 602
1029 602
1064 602
2872 602
3091 602
3664 602
3779 602
1822 603
870 604
2872 604
2973 604
4068 604
4640 604
1223 605
1602 605
4567 606
1620 607
2049 607
4092 607
3319 608
3724 609
1062 610
2358 610
2688 610
665 611
734 611
1118 611
1290 611
1346 611
1581 611
1614 611
1692 611
1914 611
2094 611
2448 611
2756 611
2872 611
3085 611
3224 611
3715 611
3753 611
4086 611
4266 611
4721 611
4771 611
1566 612
1996 612
2867 612
2872 612
3069 612
2063 613
2771 613
1412 614
2199 614
4274 615
3137 616
3187 616
4338 616
3193 618
3566 619
2249 620
2872 620
867 621
2144 621
2808 621
2872 621
2872 622
2000 623
798 624
3567 624
4114 624
1631 625
920 626
1458 626
2872 626
3833 626
4583 626
4767 626
1313 627
1335 627
1712 627
1884 627
2016 627
2117 627
2284 627
2530 627
2716 627
2795 627
2872 627
2903 627
2907 627
2911 627
2912 627
2913 627
2914 627
2953 627
3020 627
3417 627
3543 627
3669 627
3939 627
4154 627
4163 627
4543 627
4633 627
4653 627
4668 627
4676 627
4682 627
4686 627
4793 627
4795 627
4808 627
1524 628
2415 628
2784 628
2872 628
2448 629
1994 630
2591 630
2691 630
3930 630
750 631
3794 631
1290 632
1821 632
725 633
863 633
940 633
1004 633
1010 633
1115 633
1249 633
1305 633
1412 633
1550 633
1556 633
1805 633
1812 633
1870 633
1873 633
1908 633
1973 633
2049 633
2063 633
2073 633
2507 633
2617 633
2872 633
2976 633
3015 633
3470 633
4346 633
721 634
913 634
1461 634
1477 634
1626 634
1735 634
1763 634
1783 634
1818 634
2194 634
2383 634
2422 634
2643 634
3280 634
3564 634
3683 634
3698 634
3985 634
4108 634
4261 634
4583 634
847 635
957 635
1252 635
1814 635
1856 635
2281 635
2534 635
2872 635
3568 635
4280 635
4522 635
4569 635
4710 635
1317 636
2872 637
1290 638
2872 638
4700 638
655 639
801 639
1065 639
1235 639
1278 639
1366 639
1387 639
1401 639
1444 639
1713 639
1769 639
2223 639
2357 639
2460 639
2526 639
2732 639
2920 639
2985 639
3249 639
3272 639
3390 639
3635 639
3677 639
4335 639
4366 639
4620 639
4796 639
3566 640
4531 640
1295 641
2115 641
3566 641
1627 642
3301 642
933 643
1787 643
2320 643
2467 643
2755 643
4378 643
4061 644
4572 644
1907 645
2764 645
3107 646
3304 646
3876 647
883 648
1252 648
1385 648
3809 648
4280 648
3308 649
971 650
2872 650
4396 650
681 651
811 651
974 651
1368 651
1532 651
1629 651
1638 651
1750 651
2013 651
2057 651
2071 651
2128 651
2354 651
2714 651
2736 651
2872 651
2878 651
2905 651
2906 651
2907 651
2908 651
2910 651
2914 651
3252 651
3291 651
3510 651
3595 651
3685 651
3715 651
4053 651
4107 651
4110 651
4119 651
4173 651
4311 651
4333 651
4339 651
4373 651
4436 651
4464 651
4573 651
4731 651
687 652
744 652
1197 652
1710 652
1862 652
2103 652
3700 652
3762 652
4513 652
4794 652
1185 653
3652 653
3934 653
4136 653
4220 653
1987 654
2872 654
3301 654
4113 654
813 657
1026 657
1663 657
3166 657
3840 657
4330 657
704 658
772 658
1311 658
1491 658
3388 658
3569 658
3671 658
4577 658
4647 658
1029 659
1970 659
2658 659
3187 659
4338 659
2872 660
920 661
1458 661
3833 661
4767 661
2591 662
1084 663
1388 663
1780 663
2161 663
2747 663
3245 663
3278 663
3487 663
3637 663
3846 663
4423 663
4576 663
883 664
2061 664
2101 664
2872 664
3358 664
3437 664
4310 664
1581 665
1614 665
2448 665
2872 665
3224 665
770 666
1436 666
1527 666
1775 666
2637 666
2872 666
3247 666
3664 666
3689 666
3936 666
3970 666
4066 666
4477 666
4561 666
727 667
2872 667
1159 668
1553 668
1682 668
1804 668
2042 668
3237 668
3596 668
4021 668
4662 668
2077 669
2558 669
3215 669
3452 669
3665 669
3932 669
4557 669
4656 669
4689 669
769 670
1471 670
2086 670
3203 670
3733 670
4155 670
4346 670
2872 671
3566 671
4003 671
2683 672
1205 673
4162 673
3263 674
965 675
1396 675
4429 675
4364 676
834 677
1463 677
3943 677
784 678
2112 678
3102 678
1349 679
3313 679
3450 679
4591 680
811 681
974 681
1368 681
1532 681
1629 681
1638 681
1712 681
1750 681
2013 681
2057 681
2071 681
2128 681
2284 681
2354 681
2714 681
2736 681
2872 681
2878 681
2903 681
2905 681
2906 681
2907 681
2908 681
2910 681
2911 681
2914 681
2953 681
3252 681
3291 681
3510 681
3595 681
3685 681
3715 681
4053 681
4107 681
4110 681
4119 681
4154 681
4173 681
4311 681
4333 681
4339 681
4373 681
4436 681
4464 681
4573 681
4731 681
1048 682
1766 682
2142 682
2255 682
3843 682
4607 682
4071 683
3592 684
2377 685
2596 685
3189 685
4341 685
2407 686
3173 686
4578 686
4794 687
1064 688
1268 688
1282 688
1818 688
2101 688
2324 688
2458 688
2501 688
2757 688
2872 688
3098 688
3130 688
3165 688
3594 688
3763 688
4263 688
4422 688
4591 688
2872 689
4779 689
3473 690
4277 690
2872 691
3104 691
1213 692
2165 692
3193 692
3352 692
3664 692
4303 692
4663 692
990 693
2872 694
1197 695
2083 695
2872 695
4222 695
1019 696
1125 696
1213 696
1245 696
2314 696
2391 696
2791 696
2864 696
2872 696
3049 696
3091 696
3548 696
3664 696
4132 696
4365 696
4401 696
4408 696
886 697
2999 697
3172 698
3506 699
4071 700
934 701
1099 701
1163 701
1290 701
1747 701
1997 701
2872 701
2951 701
3111 701
3687 701
3743 701
3876 701
4009 701
4032 701
4479 701
4583 701
2872 702
819 703
1225 703
1560 703
2819 703
772 704
1646 704
4577 704
3515 705
1183 706
1194 706
1253 706
1631 706
1797 706
2431 706
2872 706
2951 706
3076 706
3472 706
2398 707
4201 707
4670 707
1042 708
1406 708
855 709
1950 709
2191 709
2258 709
2705 709
1636 710
4133 710
1320 711
2872 712
1110 713
882 714
3365 714
4200 714
3098 715
1241 716
1369 716
1826 716
4135 716
4139 716
1575 717
1914 718
3761 719
2872 720
4443 720
726 721
789 721
913 721
1023 721
1186 721
1521 721
1580 721
1598 721
1626 721
1735 721
1818 721
2383 721
2426 721
2447 721
2666 721
3280 721
3397 721
3683 721
3698 721
3985 721
4108 721
4197 721
2872 722
3517 723
1512 724
3290 724
4481 724
2872 725
789 726
1461 726
1477 726
1626 726
1735 726
1783 726
1818 726
2194 726
2447 726
3683 726
3698 726
3985 726
1075 727
2728 727
2872 727
3738 727
1765 728
3721 728
4548 728
3118 729
3664 729
4659 729
1241 730
2030 730
2554 730
2872 730
3062 730
3591 730
3892 730
4135 730
4139 730
4681 730
857 733
2087 733
2683 733
4347 733
4433 733
952 734
1029 734
1062 734
1332 734
1499 734
2253 734
2688 734
2872 734
2943 734
3864 734
4721 734
2872 735
2872 736
2872 738
2140 739
2783 739
4611 739
2783 740
2872 740
2872 741
903 743
2424 743
2872 743
3327 743
3760 743
4031 743
4115 743
1197 744
3700 744
4794 744
858 745
1222 745
1241 745
1508 745
4056 745
4593 746
1919 747
2146 747
2999 747
1503 748
1855 748
1914 748
2872 748
3085 748
3753 748
2872 749
3794 750
4099 751
4137 752
3834 753
905 754
1136 754
1371 754
1815 754
2520 754
2931 754
3229 754
4613 754
955 755
1929 755
2179 755
2243 755
2408 755
2862 755
2872 755
3169 755
3506 755
3758 755
2872 756
2862 757
1873 758
1406 759
2872 760
934 762
1104 762
1612 762
1737 762
1997 762
3572 762
1640 763
4364 763
2872 764
1286 765
2872 765
1467 766
859 767
982 767
1249 767
1403 767
2617 767
2657 767
2872 767
3638 767
3876 767
4387 767
4583 767
2876 768
2772 769
2872 769
2976 769
3993 769
4137 769
4376 769
1075 770
1384 770
1428 770
1436 770
1527 770
1664 770
1775 770
2220 770
2253 770
2614 770
2872 770
3070 770
3791 770
4055 770
4059 770
4116 770
4346 770
4578 770
914 771
3228 771
1181 772
1311 772
1491 772
1646 772
1792 772
3388 772
3478 772
1760 773
2872 773
3739 773
1351 774
3025 774
3340 774
3865 774
2999 775
1064 776
3491 778
1342 779
1839 779
1952 779
1979 779
2023 779
3213 779
3237 779
3432 779
3734 779
4104 779
4566 779
4735 779
2872 780
2410 781
2635 781
4111 781
3263 782
2872 783
3121 783
3607 783
1159 784
3317 784
4735 784
894 785
4193 785
916 787
1548 788
913 789
1281 789
1461 789
1477 789
1580 789
1598 789
1626 789
1783 789
1818 789
2194 789
2383 789
2426 789
3280 789
3683 789
3698 789
4108 789
4197 789
1726 790
1790 790
1944 790
1945 790
2224 790
3309 790
4407 790
2872 791
2707 792
3415 792
2872 793
2124 794
2767 794
2872 795
2872 796
2874 796
2872 797
3058 797
1190 798
1292 798
1592 798
1636 798
2872 798
3236 798
3566 798
3567 798
3680 798
4099 798
4383 798
4596 798
4608 798
4583 799
3170 800
1401 801
3480 801
4014 801
2511 802
2872 802
3475 802
4080 802
937 803
1547 803
2564 803
2788 803
3859 803
3538 804
2872 806
3132 807
2063 808
3802 809
862 810
874 810
896 810
943 810
1133 810
1312 810
1319 810
1576 810
1613 810
1677 810
1762 810
2061 810
2084 810
2101 810
2120 810
2872 810
2997 810
3292 810
3358 810
3437 810
3534 810
3650 810
3926 810
3958 810
4010 810
4310 810
4402 810
4544 810
4766 810
974 811
1368 811
1532 811
1629 811
1638 811
1750 811
2013 811
2057 811
2071 811
2128 811
2354 811
2714 811
2736 811
2872 811
2878 811
2905 811
2906 811
2907 811
2908 811
2910 811
2914 811
3252 811
3291 811
3510 811
3595 811
3685 811
3715 811
4053 811
4107 811
4110 811
4119 811
4163 811
4173 811
4311 811
4333 811
4339 811
4373 811
4436 811
4464 811
4573 811
4731 811
4795 811
1122 812
1003 813
1026 813
1663 813
3840 813
4330 813
918 814
1578 814
2656 814
2989 814
3124 814
3808 814
4209 814
3566 815
1558 817
4496 817
1990 818
4497 818
4550 818
1378 819
1560 819
2573 819
2652 819
2819 819
2872 819
3043 819
3316 819
2872 820
1013 821
1047 821
1522 821
1859 821
2043 821
2153 821
2779 821
2872 821
3110 821
3460 821
3475 821
2872 822
4433 823
1804 824
1952 824
1979 824
2023 824
2042 824
2111 824
2577 824
2618 824
3432 824
3734 824
4104 824
3130 825
2872 826
1335 827
2872 827
4611 828
2715 829
1266 830
4426 831
2074 833
2872 833
1463 834
3508 834
3943 834
4701 834
1334 835
1919 836
3724 837
1304 838
2377 840
2073 841
2124 842
2890 842
3765 842
4583 842
2371 843
3055 843
3636 843
3686 843
4583 843
4628 843
2753 844
2872 845
2872 846
1252 847
2939 847
3218 847
4280 847
2401 848
2872 848
3150 848
3222 848
3610 848
4672 848
925 849
2943 849
1669 850
3949 850
2501 851
4468 851
2872 852
1722 853
2872 853
2939 853
3946 853
2089 854
2470 854
4297 854
1256 855
2704 855
2873 855
1158 856
2904 856
4426 856
1222 858
1508 858
4056 858
4723 858
1249 859
4593 859
1501 860
2872 861
874 862
883 862
896 862
943 862
1133 862
1312 862
1319 862
1613 862
1677 862
1762 862
2061 862
2084 862
2101 862
2120 862
2872 862
2997 862
3292 862
3358 862
3437 862
3534 862
3650 862
4310 862
4402 862
4440 862
4544 862
2872 863
955 864
1497 864
2408 864
2872 864
3692 864
3725 864
2872 865
3406 865
3689 865
3970 865
2698 866
2872 866
3324 866
2144 867
2456 867
2808 867
2872 867
4247 867
1948 868
2502 868
2996 868
1269 869
1290 870
2218 870
2412 870
2872 870
2950 870
3062 870
3714 870
4640 870
4208 871
2123 872
2407 872
4578 872
1079 873
3608 873
4080 873
4786 873
896 874
943 874
1045 874
1133 874
1312 874
1319 874
1576 874
1613 874
1623 874
1677 874
1762 874
2061 874
2084 874
2101 874
2120 874
2872 874
2997 874
3292 874
3358 874
3437 874
3534 874
3650 874
3958 874
4010 874
4310 874
4402 874
4440 874
4544 874
4766 874
2872 875
4217 875
4405 875
2077 876
2872 876
1275 877
1406 877
2811 877
3566 877
3859 877
3966 877
4263 877
4673 877
4732 877
2872 878
2872 879
2537 880
3925 880
4009 880
4583 880
4628 880
1321 881
1464 881
1872 881
2872 881
3331 881
3689 881
3970 881
4810 881
1081 882
1170 882
1676 882
2443 882
2706 882
3365 882
3744 882
4200 882
4434 882
4608 882
896 883
1133 883
1252 883
1613 883
1677 883
1762 883
2061 883
2084 883
2101 883
2872 883
2997 883
3292 883
3358 883
3437 883
4310 883
4402 883
4440 883
2872 884
1562 885
3364 885
4187 885
3039 886
2060 887
3775 888
1568 889
3791 890
3550 891
3593 891
4734 891
3664 892
4659 892
2872 893
2872 894
4193 894
1912 895
3584 895
943 896
1133 896
1319 896
1576 896
1613 896
1623 896
1677 896
1762 896
2061 896
2084 896
2101 896
2872 896
2997 896
3292 896
3358 896
3437 896
3534 896
3650 896
4310 896
4402 896
4440 896
4544 896
3629 897
4111 897
4540 897
1118 898
2872 899
2872 900
3867 901
4032 901
1369 902
1381 902
1929 902
2440 902
2862 902
2872 902
3047 902
3098 902
4230 902
4431 902
4681 902
1102 903
1138 903
1456 903
2005 903
2701 903
2872 903
3760 903
4031 903
4115 903
4171 904
4794 904
975 905
1371 905
1373 905
1554 905
2520 905
2713 905
2770 905
2872 905
2936 905
3098 905
3577 905
3592 905
4797 905
2563 906
4371 906
2601 907
3393 907
3561 907
1535 908
1777 908
2030 908
2186 908
2287 908
2717 908
2872 908
2947 908
3001 908
3434 908
3702 908
4130 908
4382 908
4681 908
1633 909
2604 909
3298 909
3303 909
3524 909
3999 909
4196 909
2077 911
2558 911
3032 911
3452 911
4557 911
4656 911
4689 911
4745 912
1023 913
1580 913
1598 913
1626 913
1818 913
2208 913
2447 913
3397 913
3698 913
4108 913
4197 913
4775 913
951 914
1013 914
1164 914
1288 914
1328 914
1504 914
1589 914
2088 914
2563 914
2580 914
2974 914
4321 914
4372 914
1038 915
1185 915
2489 915
3652 915
3838 915
4136 915
1077 917
1435 917
4432 917
1081 918
1578 918
2872 918
3124 918
3478 918
3290 919
1169 920
1458 920
1485 920
3506 920
3833 920
4767 920
2439 921
4326 922
3756 923
1753 924
2872 924
961 925
2228 925
2776 925
2943 925
4755 925
1102 926
2005 926
2424 926
2872 926
3327 926
3760 926
3898 926
4115 926
4121 926
1401 927
1462 927
1571 927
2872 927
3031 927
3480 927
4558 928
2066 929
2432 929
2617 929
1407 930
1693 930
3034 930
3286 930
933 931
2690 931
2749 931
3566 931
3636 931
1091 932
2414 932
2506 932
2872 932
3398 932
1568 933
1636 933
1652 933
2415 933
3636 933
4378 933
1099 934
1104 934
1163 934
1210 934
1241 934
1737 934
1997 934
2872 934
3176 934
3572 934
3687 934
3876 934
4496 934
1241 935
1364 935
2371 935
2496 935
3664 935
3882 935
4409 935
1193 936
1471 936
2788 936
2872 936
3244 936
3739 936
4717 936
956 937
1029 937
1290 937
1539 937
2472 937
2501 937
2564 937
2788 937
2872 937
3108 937
3664 937
3739 937
3815 937
3859 937
3961 937
2872 938
2617 939
2872 939
1536 940
1996 940
3239 940
1019 941
1213 941
1763 941
2314 941
2391 941
3091 941
3130 942
1133 943
1312 943
1319 943
1576 943
1613 943
1623 943
1677 943
1762 943
2061 943
2084 943
2101 943
2120 943
2872 943
2997 943
3112 943
3292 943
3358 943
3437 943
3534 943
3650 943
3958 943
4310 943
4402 943
4440 943
4544 943
4766 943
1889 944
1029 945
1130 945
1290 945
1887 945
2501 945
2872 945
3664 945
4460 945
4659 945
2274 946
3658 946
2872 947
4139 948
2082 949
3631 949
1328 951
1499 952
2518 952
2688 952
2725 952
2782 952
3941 952
4086 952
4391 952
4551 952
4721 952
4754 952
2350 953
3876 953
1414 954
2175 954
2274 954
2845 954
2872 954
3658 954
1639 955
2231 955
2408 955
2497 955
2862 955
2872 955
3169 955
3873 955
4243 955
4578 955
4609 955
1029 956
1064 956
1096 956
1136 956
1268 956
1290 956
1802 956
1919 956
1954 956
2021 956
2083 956
2165 956
2179 956
2324 956
2429 956
2564 956
2649 956
2688 956
2743 956
2862 956
2950 956
2990 956
3077 956
3091 956
3130 956
3182 956
3229 956
3475 956
3513 956
3516 956
3552 956
3594 956
3705 956
3722 956
3724 956
3892 956
4077 956
4083 956
4178 956
4271 956
4326 956
4422 956
4561 956
4583 956
4660 956
4732 956
2872 957
2872 958
4748 959
2872 960
1507 962
4478 963
2835 964
3132 964
3137 964
3187 964
4243 964
4338 964
4545 964
1396 965
2872 966
1349 967
1501 967
2140 967
2783 967
3313 967
4097 967
2872 968
2872 969
2077 970
1488 971
2160 971
2274 971
3439 971
4802 971
1125 972
1701 972
2768 972
3115 972
4345 972
2872 973
1368 974
1532 974
1629 974
1638 974
1750 974
2013 974
2057 974
2071 974
2128 974
2354 974
2714 974
2736 974
2872 974
2878 974
2905 974
2906 974
2907 974
2908 974
2910 974
2914 974
3252 974
3291 974
3510 974
3566 974
3595 974
3685 974
3715 974
4053 974
4107 974
4110 974
4119 974
4173 974
4311 974
4333 974
4339 974
4373 974
4436 974
4464 974
4573 974
4731 974
4778 974
1942 975
2710 975
3592 975
4664 976
3766 977
2872 978
1241 979
1249 979
1413 979
1454 979
2408 979
2514 979
2872 979
4139 979
1395 980
2872 980
1809 981
4446 981
1212 982
3368 983
1851 984
3566 984
4003 984
4608 984
1468 985
2003 985
2838 985
2872 985
3007 985
3433 985
3839 985
4480 985
4489 985
4490 985
1282 986
2324 986
1265 987
1934 987
1303 988
1844 988
2872 988
2973 988
3383 988
3566 988
3994 988
4529 988
1430 989
2020 989
1292 991
1390 991
1766 991
2142 991
2168 991
2274 991
2872 991
3011 991
3289 991
3566 991
3589 991
3749 991
4410 991
4447 991
4627 991
4654 991
4802 991
1091 992
2414 992
2506 992
2872 992
3398 992
1357 993
2159 994
3014 994
1996 995
3239 995
3462 995
3639 995
2860 996
2872 996
3004 996
3442 996
3686 996
1092 997
1192 998
1988 998
2379 998
3319 998
3858 998
3907 998
2872 999
2610 1000
4298 1000
2999 1001
1249 1002
3750 1002
4603 1002
1026 1003
1663 1003
3166 1003
3840 1003
4330 1003
1010 1004
1550 1004
2872 1004
1640 1005
2531 1005
2862 1005
3716 1005
3779 1005
4659 1005
4732 1005
2788 1006
3475 1006
4477 1006
1354 1007
1579 1007
2838 1007
2872 1007
3115 1007
3901 1007
4070 1007
4487 1007
4742 1007
2872 1008
1371 1009
1381 1009
2250 1009
2713 1009
2719 1009
2770 1009
2924 1009
4432 1009
1289 1010
1290 1010
1481 1010
1870 1010
2050 1010
2872 1010
3893 1010
4007 1010
4634 1010
1169 1011
2872 1011
3506 1011
1824 1012
2679 1012
1276 1013
1824 1013
2511 1013
2872 1013
2950 1013
3179 1013
2872 1015
1329 1016
1264 1017
2399 1017
2872 1017
4002 1017
1323 1018
1213 1019
1245 1019
2314 1019
2391 1019
2791 1019
2864 1019
2969 1019
3091 1019
4132 1019
4365 1019
4401 1019
2681 1020
3513 1020
4172 1020
4660 1020
2872 1021
3566 1021
1081 1022
2233 1022
2465 1022
2539 1022
2872 1022
3124 1022
3478 1022
3585 1022
4202 1022
4487 1022
1461 1023
1783 1023
1818 1023
2990 1023
3280 1023
3683 1023
3698 1023
3985 1023
2740 1025
1663 1026
2872 1026
3166 1026
3792 1026
3840 1026
4330 1026
2872 1027
1064 1029
1136 1029
1290 1029
1305 1029
1323 1029
1406 1029
1540 1029
1802 1029
1887 1029
1898 1029
1954 1029
2083 1029
2092 1029
2324 1029
2429 1029
2501 1029
2551 1029
2564 1029
2649 1029
2688 1029
2743 1029
2788 1029
2862 1029
2927 1029
2990 1029
3077 1029
3116 1029
3170 1029
3182 1029
3229 1029
3376 1029
3552 1029
3563 1029
3594 1029
3664 1029
3722 1029
3724 1029
3765 1029
3829 1029
3838 1029
3852 1029
3876 1029
4077 1029
4271 1029
4326 1029
4422 1029
4458 1029
4561 1029
4583 1029
4663 1029
2872 1030
2872 1031
3876 1031
1070 1032
1869 1032
3613 1032
2873 1033
2205 1034
2529 1034
4508 1034
2872 1035
2872 1036
4210 1036
2241 1037
2309 1037
3663 1037
4466 1037
3652 1038
2872 1039
1385 1040
1835 1040
3316 1040
3321 1040
4316 1041
2872 1042
1461 1043
1783 1043
3683 1043
3296 1044
4544 1045
4150 1046
1317 1047
2516 1047
2683 1047
2872 1047
3684 1047
3686 1047
4080 1047
4222 1047
4412 1047
1766 1048
2142 1048
2823 1048
2872 1048
3408 1048
3559 1048
3786 1048
3843 1048
1778 1049
2872 1049
4258 1049
1243 1050
1667 1050
2872 1051
2800 1052
1954 1053
3963 1053
3989 1053
4714 1053
2872 1054
4443 1054
2872 1055
4694 1055
2018 1056
3875 1058
3876 1058
4301 1058
4479 1058
1922 1060
1935 1060
2164 1060
2247 1060
3566 1060
4359 1060
4427 1060
2002 1062
3113 1062
3307 1062
4525 1063
4571 1063
4578 1063
1290 1064
1583 1064
1780 1064
2006 1064
2564 1064
2890 1064
3077 1064
3170 1064
3564 1064
3594 1064
4561 1064
2223 1065
2357 1065
2373 1065
2460 1065
2886 1065
3390 1065
2213 1066
2761 1066
3864 1067
2892 1068
1966 1069
3701 1069
1688 1070
1869 1070
2872 1070
3612 1070
3613 1070
2872 1071
3388 1071
1697 1072
4246 1072
1335 1073
1381 1073
1865 1073
2534 1073
2870 1073
2872 1073
1911 1074
2073 1074
1318 1075
1384 1075
1436 1075
1527 1075
1664 1075
1679 1075
1775 1075
2220 1075
2253 1075
2407 1075
2430 1075
2457 1075
3070 1075
3336 1075
3469 1075
3485 1075
3791 1075
4055 1075
4081 1075
4111 1075
4116 1075
4346 1075
4578 1075
2872 1076
1092 1077
1189 1077
1435 1077
2855 1077
2872 1077
3098 1077
3599 1077
4432 1077
2949 1078
3684 1079
4080 1079
1145 1080
1763 1080
3000 1080
3436 1080
3601 1080
3603 1080
1676 1081
2055 1081
2539 1081
2872 1081
3379 1081
3478 1081
4094 1081
1371 1082
1934 1082
2073 1082
2681 1082
2872 1083
3127 1083
3324 1083
1388 1084
1780 1084
2161 1084
3245 1084
3487 1084
3637 1084
3846 1084
4423 1084
1801 1085
2627 1085
2208 1087
1929 1088
2862 1088
2316 1089
2325 1089
4061 1090
2414 1091
2506 1091
2872 1091
3398 1091
1157 1092
1371 1092
1381 1092
1492 1092
1520 1092
1554 1092
1700 1092
1749 1092
1815 1092
1904 1092
2190 1092
2250 1092
2252 1092
2562 1092
2681 1092
2713 1092
2770 1092
2776 1092
2849 1092
2860 1092
2872 1092
2924 1092
2936 1092
3098 1092
3106 1092
3143 1092
3282 1092
3482 1092
3588 1092
3610 1092
3764 1092
3766 1092
3772 1092
3806 1092
3977 1092
4198 1092
4222 1092
4379 1092
4432 1092
4648 1092
4799 1092
2872 1093
2405 1094
2872 1095
1257 1096
1970 1096
2083 1096
2586 1096
3187 1096
3552 1096
4338 1096
1335 1097
1371 1097
1381 1097
1815 1097
2405 1097
2713 1097
2807 1097
2849 1097
2872 1097
2924 1097
3766 1097
4198 1097
4222 1097
3891 1098
1104 1099
1163 1099
1826 1099
1997 1099
2872 1099
3176 1099
3269 1099
3572 1099
4475 1099
4496 1099
3652 1100
3876 1101
2005 1102
2362 1102
2424 1102
3081 1102
3327 1102
3760 1102
3898 1102
4031 1102
4115 1102
4121 1102
3507 1103
1163 1104
1210 1104
1737 1104
3572 1104
3687 1104
3444 1105
2542 1106
3230 1107
2872 1108
3566 1109
1956 1110
1913 1111
2411 1111
1511 1113
2353 1113
2872 1113
3499 1113
3712 1113
3972 1113
4242 1113
4392 1113
4399 1113
4485 1113
4673 1114
1130 1115
1498 1115
1776 1115
2063 1115
2338 1115
2872 1115
3203 1115
3268 1115
3343 1115
4561 1115
2872 1116
1283 1117
1348 1117
1773 1117
1914 1117
2925 1117
2952 1117
3085 1117
4718 1117
1614 1118
1772 1118
1914 1118
2151 1118
2201 1118
2872 1118
3085 1118
3346 1118
3686 1118
3975 1118
1705 1119
2872 1120
2889 1120
3015 1120
3116 1121
3193 1121
2799 1122
2882 1122
2687 1123
1597 1124
1606 1124
2737 1124
4370 1124
4509 1124
1829 1125
2391 1125
2768 1125
2862 1125
3115 1125
3130 1125
3837 1125
4132 1125
4345 1125
4365 1125
2872 1126
3062 1126
4135 1126
4520 1126
1405 1127
2807 1127
3711 1128
3871 1128
3989 1128
2679 1129
4235 1129
1282 1130
1323 1130
1716 1130
1887 1130
1973 1130
2063 1130
2412 1130
2688 1130
2693 1130
2766 1130
2927 1130
3193 1130
3563 1130
4066 1130
4263 1130
4477 1130
1282 1132
1818 1132
2324 1132
2458 1132
3130 1132
4263 1132
1312 1133
1319 1133
1576 1133
1613 1133
1677 1133
1762 1133
2061 1133
2084 1133
2101 1133
2120 1133
2872 1133
2997 1133
3292 1133
3358 1133
3437 1133
3534 1133
3650 1133
4310 1133
4402 1133
4440 1133
4544 1133
1292 1134
1390 1134
2566 1134
3566 1134
3749 1134
3734 1135
4162 1135
1294 1136
1381 1136
1887 1136
2501 1136
2776 1136
2829 1136
2872 1136
2981 1136
3098 1136
3187 1136
3229 1136
3239 1136
3664 1136
3724 1136
3766 1136
3988 1136
4271 1136
4509 1137
2872 1138
1583 1139
1160 1140
1786 1141
1304 1142
2485 1142
1802 1143
2872 1143
4652 1143
4760 1143
3000 1145
3436 1145
3601 1145
3603 1145
1290 1146
2872 1146
3733 1146
3852 1146
4561 1146
1302 1147
1895 1148
2872 1148
3035 1148
1335 1149
1540 1150
2165 1150
2872 1150
4303 1150
2872 1151
1820 1152
2872 1152
4351 1152
4490 1152
4746 1152
1195 1153
2258 1153
1184 1154
1380 1154
2046 1154
2498 1154
2872 1154
3571 1154
3607 1154
3876 1154
2872 1155
3754 1155
1195 1156
4522 1156
2681 1157
3240 1157
3255 1157
4142 1157
4432 1157
4799 1157
2183 1158
3280 1158
1569 1159
1845 1159
1952 1159
1979 1159
2954 1159
3317 1159
3432 1159
3983 1159
4735 1159
1821 1161
3238 1161
1855 1162
1914 1162
2991 1162
3085 1162
1210 1163
1678 1163
1737 1163
1997 1163
2872 1163
3572 1163
3687 1163
1824 1164
1838 1164
2580 1164
2872 1164
4321 1164
3209 1165
2872 1166
1658 1167
3788 1167
3789 1167
3876 1168
1186 1169
1302 1169
1434 1169
1800 1169
1908 1169
2136 1169
2167 1169
2302 1169
2448 1169
2741 1169
2862 1169
2946 1169
3506 1169
3674 1169
3883 1169
4294 1169
4445 1169
1234 1170
1676 1170
2367 1170
2443 1170
2706 1170
2872 1170
3365 1170
3744 1170
4200 1170
4608 1170
2872 1171
2390 1172
1942 1173
2889 1173
1535 1174
1502 1175
2118 1175
3110 1175
2862 1176
2872 1176
4275 1176
1381 1177
2807 1177
1685 1178
1984 1178
2168 1179
2872 1179
1334 1180
1311 1181
1420 1181
1925 1181
2569 1181
3478 1181
4796 1181
1620 1182
1873 1182
2202 1182
2872 1182
3446 1182
3619 1182
1194 1183
1797 1183
2431 1183
3746 1183
4583 1183
1617 1184
1692 1184
2237 1184
2872 1184
2963 1184
3018 1184
3536 1184
4562 1184
4642 1184
3652 1185
3934 1185
1461 1186
1818 1186
2194 1186
3506 1186
3683 1186
3698 1186
2872 1187
1943 1188
2360 1188
2975 1188
3088 1188
4438 1188
3599 1189
4070 1190
4198 1191
1552 1193
2564 1193
2872 1193
2956 1193
3829 1193
1414 1194
1797 1194
2431 1194
2872 1194
3746 1194
4583 1194
4569 1195
3084 1196
3875 1196
1710 1197
1980 1197
2017 1197
2035 1197
2872 1197
4794 1197
2872 1198
2217 1199
2678 1199
2872 1199
3003 1199
3250 1199
3527 1199
4446 1199
2216 1200
2370 1200
3535 1200
3611 1200
3800 1200
3897 1200
4039 1200
4413 1200
2869 1201
3256 1202
1949 1203
4450 1203
4162 1205
4041 1206
4764 1206
1809 1207
4020 1207
2703 1208
2872 1209
1737 1210
1997 1210
3572 1210
2872 1211
1241 1212
1249 1212
2657 1212
2872 1212
3638 1212
4387 1212
1245 1213
1282 1213
1943 1213
2208 1213
2314 1213
2391 1213
2791 1213
2864 1213
3091 1213
3193 1213
4132 1213
4365 1213
4401 1213
4408 1213
4546 1213
4641 1215
1703 1217
1659 1218
2702 1218
2792 1218
2872 1218
3033 1218
4058 1218
2872 1219
1305 1221
2760 1221
2790 1221
3063 1221
3239 1221
3872 1221
1290 1222
1487 1222
1508 1222
2983 1222
4056 1222
4646 1222
4723 1222
1335 1223
1502 1223
1657 1223
2872 1223
3027 1223
3788 1223
3789 1223
4357 1223
1560 1225
1297 1227
1922 1227
1935 1227
2097 1227
2164 1227
2247 1227
2811 1227
4359 1227
2075 1228
2448 1229
1360 1230
3190 1230
4386 1230
1334 1231
4044 1232
2039 1233
1676 1234
4366 1235
3207 1237
3024 1238
4289 1238
2872 1239
3406 1239
4190 1239
1336 1240
1694 1240
1813 1240
2033 1240
2811 1240
2923 1240
3400 1240
3648 1240
3952 1240
4427 1240
4513 1240
4526 1240
4803 1240
1249 1241
1290 1241
1364 1241
1369 1241
1826 1241
1908 1241
2054 1241
2119 1241
2514 1241
2621 1241
2626 1241
2863 1241
2872 1241
3670 1241
3876 1241
4135 1241
4583 1241
4811 1241
2847 1242
1708 1243
2966 1243
1646 1244
2089 1244
2283 1244
2470 1244
3704 1244
4297 1244
1478 1245
2314 1245
2391 1245
2791 1245
2864 1245
3091 1245
3548 1245
4124 1245
4132 1245
4365 1245
4401 1245
4408 1245
3490 1246
4176 1246
1294 1247
1371 1247
1381 1247
1883 1247
2713 1247
2807 1247
2815 1247
2872 1247
3037 1247
4432 1247
2872 1248
1364 1249
1388 1249
1812 1249
1887 1249
1943 1249
1997 1249
2371 1249
2501 1249
2872 1249
2890 1249
2968 1249
3091 1249
3288 1249
3347 1249
3610 1249
3638 1249
3652 1249
3663 1249
3664 1249
3724 1249
3750 1249
3882 1249
3921 1249
4139 1249
4245 1249
4561 1249
4583 1249
4603 1249
4659 1249
4663 1249
4741 1249
3115 1250
4345 1250
2060 1251
3940 1251
4280 1252
1400 1253
1797 1253
3076 1253
4105 1253
2037 1254
2095 1254
2246 1254
2451 1254
2527 1254
2574 1254
3867 1254
4032 1254
4284 1254
4788 1254
2872 1255
3582 1256
2417 1257
2737 1258
4370 1258
4509 1258
2199 1259
2507 1259
1938 1260
2872 1260
4625 1260
3689 1261
3970 1261
3274 1262
3357 1262
4413 1263
1573 1264
2881 1264
3221 1264
3416 1264
4792 1264
1289 1265
1371 1265
1805 1265
1878 1265
1934 1265
2770 1265
2872 1265
2889 1265
3577 1265
4224 1265
4432 1265
4561 1265
4633 1265
2455 1267
1290 1268
1539 1268
1690 1268
2214 1268
2412 1268
2519 1268
2824 1268
2872 1268
3552 1268
3664 1268
4066 1268
4293 1268
4477 1268
4561 1268
4629 1268
4716 1270
1288 1271
2199 1271
2862 1271
2872 1271
2999 1271
3046 1271
2872 1272
1895 1273
1899 1273
1571 1274
2872 1274
4340 1274
1727 1275
3966 1275
1483 1276
2929 1276
4044 1276
4270 1276
2985 1278
4366 1278
1282 1279
3492 1280
1461 1281
2426 1281
3440 1281
1540 1282
1887 1282
2076 1282
2391 1282
2693 1282
2872 1282
3017 1282
3724 1282
3859 1282
4132 1282
4255 1282
4263 1282
4446 1282
4471 1282
4732 1282
1348 1283
1773 1283
1855 1283
1914 1283
2872 1283
2925 1283
2952 1283
3085 1283
3753 1283
2168 1284
3290 1284
2140 1285
2783 1285
2872 1285
3006 1285
3547 1285
3992 1285
4097 1285
4535 1285
4777 1285
1929 1286
1998 1286
2606 1286
2862 1286
3243 1286
3332 1286
4230 1286
4744 1286
4798 1286
2872 1287
1573 1288
2872 1288
3164 1288
3566 1288
1305 1289
1355 1289
2872 1289
2888 1289
3067 1289
3132 1289
3137 1289
4561 1289
1365 1290
1414 1290
1508 1290
1516 1290
1597 1290
1620 1290
1673 1290
1722 1290
1728 1290
1747 1290
1812 1290
1818 1290
1850 1290
1873 1290
1886 1290
2006 1290
2092 1290
2175 1290
2329 1290
2400 1290
2408 1290
2412 1290
2501 1290
2507 1290
2519 1290
2538 1290
2559 1290
2564 1290
2582 1290
2617 1290
2688 1290
2752 1290
2757 1290
2771 1290
2776 1290
2796 1290
2826 1290
2839 1290
2845 1290
2872 1290
2923 1290
2949 1290
2951 1290
2991 1290
3085 1290
3091 1290
3187 1290
3193 1290
3198 1290
3220 1290
3236 1290
3319 1290
3330 1290
3343 1290
3360 1290
3377 1290
3571 1290
3592 1290
3605 1290
3618 1290
3664 1290
3715 1290
3768 1290
3997 1290
4006 1290
4009 1290
4066 1290
4135 1290
4139 1290
4167 1290
4202 1290
4293 1290
4326 1290
4331 1290
4338 1290
4387 1290
4477 1290
4478 1290
4525 1290
4561 1290
4583 1290
4659 1290
4669 1290
4700 1290
4769 1290
4787 1290
2199 1291
2872 1291
2999 1291
4426 1291
1330 1292
1390 1292
1851 1292
2566 1292
2788 1292
2792 1292
2872 1292
3566 1292
3666 1292
3673 1292
3749 1292
4316 1292
4447 1292
4654 1292
1583 1293
3794 1293
1371 1294
1381 1294
1886 1294
2369 1294
2617 1294
2713 1294
2776 1294
2807 1294
2862 1294
2872 1294
3098 1294
3961 1294
4432 1294
4453 1294
2115 1295
3566 1295
1383 1296
1878 1296
1935 1297
2164 1297
2900 1298
3968 1298
3633 1299
4522 1299
2276 1300
1823 1301
2274 1301
4447 1301
4654 1301
2222 1302
2853 1302
2872 1302
3928 1302
3929 1302
1886 1303
2813 1303
2872 1303
4690 1303
2485 1304
1369 1305
1412 1305
1550 1305
1739 1305
1779 1305
2049 1305
2066 1305
2408 1305
2617 1305
2727 1305
2764 1305
2859 1305
2872 1305
2976 1305
3063 1305
3129 1305
3239 1305
3431 1305
3513 1305
3592 1305
3724 1305
3864 1305
3892 1305
4285 1305
4561 1305
4578 1305
4583 1305
4660 1305
1468 1306
4489 1306
2872 1307
4066 1307
1460 1308
1381 1309
3098 1309
2698 1310
1491 1311
1646 1311
1792 1311
3569 1311
3671 1311
1319 1312
1576 1312
1613 1312
1677 1312
1762 1312
2061 1312
2084 1312
2101 1312
2120 1312
2872 1312
2997 1312
3112 1312
3292 1312
3437 1312
3534 1312
3650 1312
3958 1312
4010 1312
4310 1312
4402 1312
4440 1312
4544 1312
4766 1312
1335 1313
1532 1313
1712 1313
1884 1313
2016 1313
2117 1313
2284 1313
2530 1313
2716 1313
2795 1313
2872 1313
2903 1313
2911 1313
2912 1313
2913 1313
2914 1313
2953 1313
3020 1313
3417 1313
3543 1313
3566 1313
3669 1313
3715 1313
3939 1313
3972 1313
4110 1313
4154 1313
4163 1313
4333 1313
4543 1313
4633 1313
4653 1313
4668 1313
4676 1313
4682 1313
4686 1313
4793 1313
4795 1313
4808 1313
2872 1314
2503 1315
4238 1316
4638 1316
2297 1317
2872 1317
3475 1317
3513 1317
4172 1317
4660 1317
2123 1318
2220 1318
2407 1318
2430 1318
3070 1318
3485 1318
3791 1318
4055 1318
4081 1318
4111 1318
4346 1318
4578 1318
1576 1319
1613 1319
1623 1319
1677 1319
1762 1319
2061 1319
2084 1319
2101 1319
2120 1319
2872 1319
2997 1319
3292 1319
3358 1319
3437 1319
3534 1319
3650 1319
3926 1319
4310 1319
4402 1319
4440 1319
4544 1319
4766 1319
3766 1320
1464 1321
1872 1321
3689 1321
3970 1321
4810 1321
4344 1322
2927 1323
1948 1324
1452 1325
2872 1326
3077 1327
2783 1329
2872 1329
3075 1329
4164 1329
4492 1329
2872 1330
3308 1331
2467 1333
1381 1334
1482 1334
2493 1334
2733 1334
2872 1334
3079 1334
3093 1334
3164 1334
3520 1334
4533 1334
1493 1335
1578 1335
1712 1335
1750 1335
1884 1335
2016 1335
2117 1335
2233 1335
2284 1335
2450 1335
2595 1335
2716 1335
2795 1335
2837 1335
2872 1335
2903 1335
2908 1335
2910 1335
2911 1335
2912 1335
2913 1335
2914 1335
2953 1335
3020 1335
3417 1335
3437 1335
3543 1335
3669 1335
3685 1335
3686 1335
3810 1335
3876 1335
3939 1335
4107 1335
4154 1335
4163 1335
4222 1335
4253 1335
4448 1335
4543 1335
4633 1335
4653 1335
4668 1335
4676 1335
4682 1335
4686 1335
4778 1335
4793 1335
4795 1335
4808 1335
1813 1336
2033 1336
2811 1336
3258 1336
3952 1336
4427 1336
4526 1336
4803 1336
2843 1337
4476 1337
3310 1338
3627 1338
3602 1339
2999 1340
4426 1340
2023 1342
3734 1342
4104 1342
2872 1343
3124 1344
1858 1345
2089 1345
2162 1345
2208 1345
2470 1345
4203 1345
2872 1346
3224 1346
3224 1347
1773 1348
1914 1348
2952 1348
3085 1348
1501 1349
1548 1349
2264 1349
2872 1349
2325 1350
3025 1351
3340 1351
3865 1351
2872 1352
1381 1353
1579 1354
2135 1354
2872 1354
4529 1354
4503 1355
2448 1356
3686 1356
4086 1356
4754 1356
2720 1357
3709 1357
3896 1357
4624 1358
3814 1359
3190 1360
4386 1360
2318 1361
3689 1362
3970 1362
3412 1363
4545 1363
1369 1364
2030 1364
2119 1364
2501 1364
2872 1364
2890 1364
3670 1364
4139 1364
2890 1365
3077 1365
3316 1365
4271 1365
2094 1366
2223 1366
3390 1366
2872 1367
1532 1368
1629 1368
1638 1368
1750 1368
2013 1368
2057 1368
2071 1368
2128 1368
2354 1368
2714 1368
2736 1368
2878 1368
2905 1368
2906 1368
2907 1368
2908 1368
2910 1368
2914 1368
3252 1368
3291 1368
3510 1368
3595 1368
3685 1368
3715 1368
4053 1368
4107 1368
4110 1368
4119 1368
4173 1368
4311 1368
4333 1368
4339 1368
4373 1368
4436 1368
4464 1368
4573 1368
4731 1368
1826 1369
1914 1369
2119 1369
2448 1369
2872 1369
2890 1369
3838 1369
4135 1369
4811 1369
2872 1370
1381 1371
1520 1371
1546 1371
1557 1371
1815 1371
1911 1371
1913 1371
1934 1371
2073 1371
2179 1371
2199 1371
2411 1371
2681 1371
2713 1371
2770 1371
2862 1371
2872 1371
2924 1371
3098 1371
3240 1371
3270 1371
3610 1371
3773 1371
4198 1371
4276 1371
4370 1371
4432 1371
4799 1371
2199 1372
1381 1373
1393 1373
1554 1373
2073 1373
2179 1373
2807 1373
4296 1373
1421 1374
3987 1374
2307 1375
4322 1377
1560 1378
2872 1378
1649 1379
1492 1381
1554 1381
1657 1381
1815 1381
1865 1381
1886 1381
2063 1381
2250 1381
2432 1381
2534 1381
2617 1381
2713 1381
2720 1381
2770 1381
2807 1381
2862 1381
2872 1381
2924 1381
3098 1381
3147 1381
3229 1381
3410 1381
3577 1381
3582 1381
3588 1381
3724 1381
3726 1381
3821 1381
3992 1381
4198 1381
4230 1381
4276 1381
4432 1381
4482 1381
4522 1381
4814 1381
1734 1382
3251 1382
1878 1383
1428 1384
1436 1384
1527 1384
1664 1384
1775 1384
2220 1384
2253 1384
2614 1384
2872 1384
3070 1384
3791 1384
4055 1384
4116 1384
4346 1384
4578 1384
4280 1385
3412 1386
3311 1387
4371 1387
1780 1388
2161 1388
2747 1388
3245 1388
3487 1388
3637 1388
3846 1388
4117 1388
4423 1388
2854 1389
2872 1389
3057 1389
3664 1389
1851 1390
2566 1390
3011 1390
3289 1390
3566 1390
4302 1390
3336 1391
4215 1392
1859 1394
2153 1394
3110 1394
4664 1394
1857 1395
2872 1395
4131 1395
4282 1395
1517 1396
4429 1396
4211 1397
3933 1398
4735 1398
2973 1399
1414 1400
1453 1400
2131 1400
2872 1400
3578 1400
2526 1401
3031 1401
4014 1401
4366 1401
2872 1402
4815 1404
1842 1405
2872 1405
1454 1406
1610 1406
2872 1406
2880 1406
2949 1406
3733 1406
2872 1408
1561 1409
3593 1409
3810 1409
3502 1410
1784 1411
2872 1411
3086 1411
3274 1411
4036 1411
1554 1412
2049 1412
2199 1412
2999 1412
3204 1412
3314 1412
3764 1412
2268 1413
2371 1414
2752 1414
3475 1414
3610 1414
3746 1414
3957 1414
3997 1414
4006 1414
4331 1414
4583 1414
1928 1415
2872 1415
2872 1416
3407 1416
2801 1417
4814 1417
2872 1418
3049 1418
3118 1418
3663 1418
3664 1418
3921 1418
3936 1418
4659 1418
2872 1419
4577 1420
3987 1421
2058 1422
3532 1422
4593 1423
2617 1424
3113 1424
2618 1425
2954 1425
4744 1425
2872 1426
2199 1427
1436 1428
1527 1428
1664 1428
1775 1428
2253 1428
2659 1428
2734 1428
3014 1428
3030 1428
4116 1428
4257 1428
1948 1431
3295 1431
3381 1431
1627 1433
2936 1433
3710 1433
3778 1433
4212 1433
1628 1434
2872 1434
3506 1434
1527 1436
1664 1436
1775 1436
2220 1436
2253 1436
2457 1436
2614 1436
2872 1436
3070 1436
3336 1436
3791 1436
4055 1436
4116 1436
4346 1436
4578 1436
1815 1437
2146 1437
2713 1437
2999 1437
4324 1438
1984 1439
2346 1439
4095 1439
2872 1440
3560 1440
2872 1441
2316 1442
4028 1442
2872 1443
3089 1443
3124 1443
2501 1445
3116 1445
2872 1446
2236 1447
3780 1447
4276 1447
1766 1448
4198 1449
2872 1450
2129 1451
1563 1452
2959 1452
4696 1452
2448 1453
2448 1454
2990 1454
3829 1454
3838 1454
2490 1455
3412 1455
2312 1456
3760 1456
3878 1457
1485 1458
4767 1458
2081 1459
1477 1461
1580 1461
1598 1461
1735 1461
1818 1461
2162 1461
2194 1461
2208 1461
2383 1461
2426 1461
2447 1461
2666 1461
3397 1461
3440 1461
3566 1461
3652 1461
3698 1461
4108 1461
4197 1461
4608 1461
4649 1461
2298 1462
2872 1462
3021 1462
3480 1462
3508 1463
3943 1463
4701 1463
1872 1464
3689 1464
3970 1464
4810 1464
2859 1465
2940 1465
3005 1465
1593 1466
2929 1467
4270 1467
2003 1468
3007 1468
3839 1468
4480 1468
4489 1468
2121 1469
3599 1469
4749 1469
3513 1470
3566 1470
1692 1471
1805 1471
1809 1471
2237 1471
2418 1471
2807 1471
2860 1471
2862 1471
2872 1471
2963 1471
3242 1471
3593 1471
3686 1471
3852 1471
4008 1471
2872 1472
3408 1472
3582 1472
3876 1473
1899 1474
2473 1475
3154 1475
1487 1477
1580 1477
1626 1477
1735 1477
1818 1477
2194 1477
2208 1477
2383 1477
2426 1477
2872 1477
3683 1477
3698 1477
3985 1477
4108 1477
4117 1477
4197 1477
4583 1477
2130 1478
3077 1478
3186 1478
3548 1478
3664 1478
4659 1478
4730 1478
2208 1479
2872 1479
3476 1479
3506 1479
3566 1479
1568 1480
1636 1480
2412 1480
2872 1480
3004 1480
4066 1480
4070 1480
3520 1482
1715 1483
2929 1483
4626 1483
4759 1484
3833 1485
4767 1485
2208 1487
2993 1487
3245 1487
3516 1487
4117 1487
4583 1487
2160 1488
2872 1489
3686 1489
4387 1489
4142 1490
1925 1491
2412 1491
2676 1491
3478 1491
2872 1492
1930 1493
2212 1493
2872 1493
3008 1493
2245 1494
2269 1494
2872 1494
3107 1494
3304 1494
1564 1495
2872 1495
4740 1495
2872 1496
3610 1498
2505 1499
2518 1499
2688 1499
2725 1499
2782 1499
3941 1499
4086 1499
4391 1499
4551 1499
4721 1499
4754 1499
3693 1500
2872 1501
4411 1501
1778 1502
2118 1502
2213 1502
2280 1502
2320 1502
2440 1502
2698 1502
2752 1502
2872 1502
2926 1502
3223 1502
3885 1502
3964 1502
4283 1502
4432 1502
4550 1502
4761 1502
2397 1503
2872 1503
3089 1503
4791 1503
1744 1505
3446 1505
2299 1506
2578 1506
2983 1508
4056 1508
4723 1508
4448 1509
2872 1510
1532 1511
2353 1511
2619 1511
3420 1511
4242 1511
4392 1511
2325 1512
2898 1513
2872 1514
2872 1515
1727 1517
1964 1517
2040 1517
3839 1517
1859 1518
2153 1518
2984 1518
3110 1518
3380 1518
3239 1519
1545 1520
2462 1520
2713 1520
1783 1521
3985 1521
1718 1522
2313 1522
2683 1522
2872 1522
3460 1522
2872 1523
2415 1524
2784 1524
2435 1525
4372 1525
4404 1525
1898 1526
1664 1527
1775 1527
2220 1527
2253 1527
2614 1527
2872 1527
3070 1527
3336 1527
3791 1527
4055 1527
4116 1527
4346 1527
4578 1527
4583 1528
3729 1529
2570 1530
2723 1530
2992 1530
3435 1530
3570 1530
4560 1530
1629 1532
1638 1532
1750 1532
2013 1532
2057 1532
2071 1532
2117 1532
2128 1532
2354 1532
2714 1532
2736 1532
2872 1532
2878 1532
2903 1532
2905 1532
2906 1532
2907 1532
2908 1532
2910 1532
2914 1532
3020 1532
3252 1532
3291 1532
3510 1532
3595 1532
3669 1532
3685 1532
3715 1532
3939 1532
4053 1532
4107 1532
4110 1532
4119 1532
4154 1532
4163 1532
4173 1532
4242 1532
4311 1532
4333 1532
4339 1532
4373 1532
4436 1532
4464 1532
4573 1532
4731 1532
3324 1533
2273 1534
2872 1534
1703 1535
1777 1535
1798 1535
1872 1535
2030 1535
2287 1535
2622 1535
2717 1535
2872 1535
3001 1535
3434 1535
3689 1535
3702 1535
3970 1535
4130 1535
4382 1535
4516 1535
4681 1535
3857 1536
2114 1537
2872 1537
4284 1537
4583 1537
4628 1537
2872 1538
2564 1539
1818 1540
1887 1540
2021 1540
2324 1540
2501 1540
2872 1540
3130 1540
3594 1540
4066 1540
4263 1540
4591 1540
2385 1541
2918 1541
2869 1542
2872 1542
3002 1543
3148 1544
1815 1546
1904 1546
2713 1546
2770 1546
2872 1546
3136 1546
2564 1547
3859 1547
4477 1547
2872 1548
3664 1548
2683 1549
2872 1549
3460 1549
1870 1550
1965 1550
2029 1550
2067 1550
2073 1550
3804 1550
4184 1550
4243 1550
4495 1550
4634 1550
3399 1551
1954 1552
3244 1552
3739 1552
1682 1553
1804 1553
2042 1553
3237 1553
4021 1553
4662 1553
2179 1554
3163 1554
3240 1554
3610 1554
3992 1554
4169 1554
4276 1554
2527 1555
3626 1555
3867 1555
4032 1555
3494 1558
4496 1558
2872 1559
1696 1560
2028 1560
2573 1560
2652 1560
2819 1560
3043 1560
3316 1560
4537 1560
2594 1561
3847 1561
1941 1562
2543 1562
3364 1562
3864 1562
4182 1562
4495 1562
3729 1563
3864 1563
1930 1564
2872 1564
3326 1564
4298 1564
4519 1564
3766 1565
1947 1568
2072 1568
2463 1568
2844 1568
2872 1568
4070 1568
1845 1569
1979 1569
2042 1569
2211 1569
2588 1569
3983 1569
2872 1570
4340 1571
2872 1572
2872 1573
3566 1573
3113 1574
1646 1575
1937 1575
2234 1575
1613 1576
1623 1576
1677 1576
1762 1576
1954 1576
2061 1576
2084 1576
2101 1576
2120 1576
2872 1576
2997 1576
3112 1576
3292 1576
3358 1576
3437 1576
3534 1576
3650 1576
3926 1576
3958 1576
4310 1576
4402 1576
4544 1576
4766 1576
3290 1577
4481 1577
1819 1578
2685 1578
2699 1578
2869 1578
2872 1578
3124 1578
4175 1578
4209 1578
4502 1578
2177 1579
2872 1579
3706 1579
1626 1580
1783 1580
1818 1580
2194 1580
2383 1580
2426 1580
3683 1580
3698 1580
4108 1580
3224 1581
3308 1582
1921 1583
2137 1583
2189 1583
2371 1583
2458 1583
2472 1583
2872 1583
3233 1583
3664 1583
4252 1583
4659 1583
2872 1584
1786 1585
2872 1586
1605 1587
3775 1588
4080 1588
3546 1589
4372 1589
2973 1590
3444 1590
1851 1592
2012 1592
2872 1592
3175 1592
3680 1592
4099 1592
2872 1594
4617 1595
4657 1596
1600 1597
3742 1597
1818 1598
2383 1598
3280 1598
3683 1598
3698 1598
4229 1599
2923 1600
1619 1602
4313 1602
3816 1603
2872 1604
4222 1604
2134 1606
2597 1606
2704 1606
4001 1606
3480 1607
2644 1608
1914 1609
2880 1610
1858 1611
2089 1611
2208 1611
2470 1611
2820 1611
1737 1612
2872 1612
1623 1613
1677 1613
1762 1613
2061 1613
2084 1613
2101 1613
2120 1613
2872 1613
2997 1613
3292 1613
3358 1613
3437 1613
3534 1613
3650 1613
4010 1613
4310 1613
4402 1613
4440 1613
4544 1613
2448 1614
2872 1614
4721 1614
1913 1615
2872 1615
1914 1616
2218 1617
2237 1617
2963 1617
2965 1617
3018 1617
3391 1617
3536 1617
3686 1617
3786 1617
4215 1617
4562 1617
3930 1618
1686 1619
4711 1619
1873 1620
2213 1620
2288 1620
2507 1620
2872 1620
3142 1620
3205 1620
3442 1620
4092 1620
4582 1620
2872 1621
4022 1621
1911 1622
3988 1622
2061 1623
2084 1623
2101 1623
2120 1623
2872 1623
2997 1623
3534 1623
3650 1623
4310 1623
4544 1623
1899 1624
2872 1624
2943 1624
2619 1625
1818 1626
2194 1626
2383 1626
2426 1626
3683 1626
3698 1626
4108 1626
1799 1627
2238 1627
2484 1627
2557 1627
2673 1627
2807 1627
3456 1627
3483 1627
4004 1627
4403 1627
2442 1628
2690 1628
2749 1628
2872 1628
3737 1628
1638 1629
1750 1629
2013 1629
2057 1629
2071 1629
2128 1629
2354 1629
2714 1629
2736 1629
2872 1629
2878 1629
2905 1629
2906 1629
2907 1629
2908 1629
2910 1629
2914 1629
3252 1629
3291 1629
3510 1629
3566 1629
3595 1629
3685 1629
3715 1629
4053 1629
4107 1629
4110 1629
4119 1629
4173 1629
4311 1629
4333 1629
4339 1629
4373 1629
4436 1629
4464 1629
4561 1629
4573 1629
4731 1629
1888 1630
2011 1631
2099 1631
3825 1632
1940 1633
3866 1633
2872 1634
2963 1634
3124 1634
3391 1634
3408 1634
4188 1634
4215 1634
1947 1636
2229 1636
2433 1636
3004 1636
3148 1636
3366 1636
4608 1636
1750 1638
2013 1638
2057 1638
2071 1638
2128 1638
2354 1638
2714 1638
2736 1638
2872 1638
2878 1638
2905 1638
2906 1638
2907 1638
2908 1638
2910 1638
2912 1638
2914 1638
3020 1638
3252 1638
3291 1638
3510 1638
3595 1638
3685 1638
3715 1638
4053 1638
4107 1638
4110 1638
4119 1638
4173 1638
4311 1638
4333 1638
4339 1638
4373 1638
4436 1638
4464 1638
4573 1638
4653 1638
4731 1638
4778 1638
2531 1640
2872 1640
2930 1640
3664 1640
4364 1640
2872 1641
2872 1642
2872 1643
2872 1644
2440 1645
3318 1645
1792 1646
2569 1646
2676 1646
2851 1646
3211 1646
3388 1646
4577 1646
4796 1646
3096 1647
2166 1649
3496 1649
4271 1649
3399 1650
2872 1651
3124 1651
3876 1651
2768 1652
4378 1652
2742 1653
2872 1654
2872 1655
2440 1656
2773 1658
2173 1659
2872 1659
2937 1659
3033 1659
3042 1659
2872 1660
4669 1660
4066 1661
2872 1662
3166 1663
3840 1663
4330 1663
1775 1664
2220 1664
2253 1664
2457 1664
2614 1664
2872 1664
3070 1664
3336 1664
3791 1664
4055 1664
4116 1664
4346 1664
4578 1664
2872 1665
3493 1666
2966 1667
2872 1668
4458 1669
1689 1670
2199 1671
2610 1671
3576 1671
4044 1671
4076 1671
4298 1671
2872 1672
4006 1673
4044 1674
2055 1676
2443 1676
2706 1676
2842 1676
4200 1676
4608 1676
1762 1677
2061 1677
2084 1677
2101 1677
2120 1677
2872 1677
2997 1677
3112 1677
3292 1677
3358 1677
3437 1677
3534 1677
3650 1677
4010 1677
4310 1677
4402 1677
4440 1677
4544 1677
4273 1678
2220 1679
2407 1679
2430 1679
3070 1679
3469 1679
3485 1679
3791 1679
4081 1679
4111 1679
4346 1679
4578 1679
2257 1680
3071 1680
3919 1680
4336 1680
4693 1680
4785 1680
2713 1681
1804 1682
2042 1682
3237 1682
4021 1682
4662 1682
2065 1683
2089 1683
2437 1683
2872 1683
3115 1683
3674 1683
4297 1683
2405 1684
3098 1684
4755 1687
1858 1688
1888 1688
2089 1688
2162 1688
2208 1688
2395 1688
2470 1688
2765 1688
2820 1688
2872 1688
2958 1688
3516 1688
3612 1688
3613 1688
4203 1688
4297 1688
2872 1689
2940 1689
2519 1690
3004 1690
4066 1690
4477 1690
3876 1691
3920 1691
3957 1691
3991 1691
4493 1691
2149 1692
2237 1692
2399 1692
2750 1692
2823 1692
2860 1692
2872 1692
2963 1692
3018 1692
3391 1692
3536 1692
3686 1692
3825 1692
4215 1692
4222 1692
4562 1692
4642 1692
4721 1692
3286 1693
2872 1695
2819 1696
2872 1696
1919 1697
2031 1697
2250 1697
3016 1697
3404 1697
2872 1698
2872 1699
2713 1700
2872 1701
4345 1701
3193 1702
3663 1702
3664 1702
3921 1702
4659 1702
2030 1703
2287 1703
2872 1703
3001 1703
4130 1703
4516 1703
4681 1703
2872 1704
2872 1706
3701 1707
3914 1707
1730 1708
2872 1709
1813 1710
1862 1710
2103 1710
3700 1710
3762 1710
4513 1710
4677 1710
4794 1710
1899 1711
1884 1712
2016 1712
2117 1712
2128 1712
2284 1712
2530 1712
2716 1712
2795 1712
2872 1712
2903 1712
2907 1712
2910 1712
2911 1712
2912 1712
2913 1712
2953 1712
3020 1712
3417 1712
3543 1712
3669 1712
3685 1712
3939 1712
4154 1712
4163 1712
4543 1712
4633 1712
4653 1712
4668 1712
4676 1712
4682 1712
4686 1712
4731 1712
4793 1712
4795 1712
4808 1712
2248 1713
2526 1713
2208 1714
2872 1715
3566 1715
3629 1715
4540 1715
2084 1717
2683 1718
3460 1718
4664 1718
4807 1718
4385 1719
2471 1720
4265 1720
4265 1721
4380 1721
1883 1722
2272 1722
2519 1722
2652 1722
2872 1722
3946 1722
4066 1722
4387 1722
4561 1722
2872 1723
3566 1723
1753 1724
3566 1725
4003 1725
4596 1725
1790 1726
1944 1726
1945 1726
2224 1726
3309 1726
4407 1726
2872 1728
3566 1728
2872 1729
2872 1730
2872 1731
3497 1732
1760 1734
2180 1734
2872 1734
3251 1734
4018 1734
1818 1735
3683 1735
3698 1735
1997 1737
3572 1737
3687 1737
2872 1738
2617 1739
2720 1739
3046 1739
2872 1740
3263 1741
2872 1742
2247 1743
4359 1743
4608 1743
2682 1744
2363 1745
4559 1745
1927 1746
1946 1747
2845 1747
3142 1747
3876 1747
4063 1747
2541 1748
2872 1748
3064 1748
2872 1749
4432 1749
2013 1750
2057 1750
2071 1750
2128 1750
2284 1750
2354 1750
2714 1750
2736 1750
2872 1750
2878 1750
2905 1750
2906 1750
2907 1750
2908 1750
2910 1750
2914 1750
2953 1750
3252 1750
3291 1750
3510 1750
3595 1750
3685 1750
3715 1750
4053 1750
4107 1750
4110 1750
4119 1750
4173 1750
4311 1750
4333 1750
4339 1750
4373 1750
4436 1750
4464 1750
4573 1750
4731 1750
4778 1750
1914 1751
3085 1751
3972 1752
2783 1753
2872 1753
4321 1753
4492 1753
1767 1754
3506 1755
2834 1756
2839 1756
2872 1756
3149 1756
3464 1756
3810 1756
3385 1757
2872 1759
1903 1760
2180 1760
3251 1760
4018 1760
2872 1761
2061 1762
2084 1762
2101 1762
2120 1762
2872 1762
2997 1762
3292 1762
3358 1762
3437 1762
3534 1762
3650 1762
4310 1762
4402 1762
4437 1762
4440 1762
4544 1762
4706 1762
2422 1763
2644 1763
3436 1763
1830 1764
2617 1764
2877 1764
3184 1764
4007 1764
4743 1764
3721 1765
4548 1765
2142 1766
2872 1766
3559 1766
3843 1766
3890 1766
4042 1766
4195 1766
2688 1768
2872 1770
3941 1770
3876 1771
2448 1772
3753 1772
4086 1772
4266 1772
4721 1772
1914 1773
2448 1773
2872 1773
2925 1773
2952 1773
3017 1773
3085 1773
4718 1773
2713 1774
2770 1774
4276 1774
4370 1774
2220 1775
2253 1775
2457 1775
2614 1775
2872 1775
3070 1775
3791 1775
4055 1775
4059 1775
4116 1775
4346 1775
4578 1775
3506 1776
2030 1777
2078 1777
2186 1777
2287 1777
2717 1777
2947 1777
3001 1777
3702 1777
4130 1777
4382 1777
4681 1777
2752 1778
1899 1779
2452 1779
2593 1779
2872 1779
4728 1779
2161 1780
2643 1780
2747 1780
3080 1780
3245 1780
3278 1780
3487 1780
3564 1780
3637 1780
3846 1780
4217 1780
4423 1780
2038 1781
3423 1782
3868 1782
1818 1783
2089 1783
2208 1783
2383 1783
2426 1783
2447 1783
3334 1783
3397 1783
3516 1783
3652 1783
4108 1783
4117 1783
4297 1783
4658 1783
3274 1784
3357 1784
4036 1784
2293 1785
2270 1787
2320 1787
2467 1787
2755 1787
2872 1787
1888 1788
3612 1788
1944 1790
1945 1790
2224 1790
3309 1790
4407 1790
2089 1791
2470 1791
2569 1792
4575 1793
2872 1794
3876 1794
4350 1795
2872 1796
2889 1796
4253 1796
2431 1797
2337 1798
2338 1798
2607 1798
2872 1798
3198 1798
4006 1798
4050 1798
2324 1802
3994 1802
4225 1802
2103 1803
3700 1803
1979 1804
2023 1804
2042 1804
2577 1804
3237 1804
3596 1804
4021 1804
4104 1804
4662 1804
1972 1805
2203 1805
2338 1805
2775 1805
2872 1805
3343 1805
2872 1807
2872 1808
2884 1808
4356 1808
2872 1809
3664 1809
4551 1809
4520 1810
1940 1811
3866 1811
2872 1812
2890 1812
3664 1812
2033 1813
2811 1813
3566 1813
3952 1813
4359 1813
4427 1813
4526 1813
4677 1813
4803 1813
2872 1814
1904 1815
2100 1815
2179 1815
2713 1815
2776 1815
2777 1815
2981 1815
3098 1815
3187 1815
3604 1815
3610 1815
3886 1815
4169 1815
4276 1815
4354 1815
4370 1815
4432 1815
4639 1815
3460 1816
2872 1817
2194 1818
2383 1818
2426 1818
2447 1818
2643 1818
2666 1818
2852 1818
3280 1818
3397 1818
3440 1818
3564 1818
3652 1818
3683 1818
3698 1818
3838 1818
3985 1818
4108 1818
4197 1818
4649 1818
4732 1818
2872 1819
3124 1819
3240 1819
2478 1820
2872 1821
3201 1821
3281 1822
4022 1822
2274 1823
4447 1823
4654 1823
2088 1824
2580 1824
3211 1824
3547 1824
3569 1824
4125 1824
4733 1824
2164 1825
2872 1826
3876 1826
3644 1827
3900 1828
2768 1829
3115 1829
3130 1829
2274 1830
2650 1830
2781 1830
2872 1830
3658 1830
3935 1830
4447 1830
4753 1830
2059 1831
2650 1831
2872 1831
4753 1831
2547 1832
2872 1832
2872 1833
2474 1834
2219 1835
3077 1835
3141 1835
3191 1835
3876 1835
4468 1835
1881 1836
2444 1836
3124 1836
3044 1837
1952 1839
2023 1839
2954 1839
3213 1839
3237 1839
3734 1839
4104 1839
4566 1839
3077 1840
3098 1840
3730 1840
3473 1841
3219 1842
4542 1842
2872 1843
2748 1844
2872 1844
2973 1844
3383 1844
4529 1844
2954 1845
3317 1845
3983 1845
4735 1845
3480 1846
2758 1847
2232 1848
2516 1848
2976 1848
3443 1848
3459 1848
4123 1848
4412 1848
4782 1848
2872 1849
3011 1851
3566 1851
3749 1851
4003 1851
4099 1851
2872 1852
3566 1853
2723 1854
3792 1854
2169 1855
2456 1855
2619 1855
2872 1855
3085 1855
3168 1855
3377 1855
3753 1855
4266 1855
4331 1855
4498 1855
4553 1855
4812 1855
2089 1858
2162 1858
2208 1858
2395 1858
2470 1858
2765 1858
2820 1858
4459 1858
2153 1859
2288 1859
2710 1859
2779 1859
2872 1859
2984 1859
3093 1859
3110 1859
3380 1859
4426 1859
2646 1860
3995 1861
2103 1862
3762 1862
4427 1862
4513 1862
4794 1862
3124 1863
4711 1864
2815 1865
2872 1865
3652 1866
2872 1868
1888 1869
2958 1869
3612 1869
3613 1869
4141 1869
2375 1870
2872 1870
3804 1870
4243 1870
2564 1871
2622 1872
3331 1872
3434 1872
3676 1872
3689 1872
3970 1872
4651 1872
4773 1872
4810 1872
2008 1873
2049 1873
2124 1873
2288 1873
2438 1873
2507 1873
2516 1873
2872 1873
2938 1873
3205 1873
3286 1873
4092 1873
4465 1873
4738 1873
4486 1874
2408 1875
2862 1875
4413 1876
2872 1877
3967 1878
2307 1879
2168 1880
2444 1881
2872 1882
2872 1883
3724 1883
2016 1884
2117 1884
2284 1884
2716 1884
2795 1884
2903 1884
2911 1884
2912 1884
2913 1884
2953 1884
3020 1884
3417 1884
3543 1884
3669 1884
3939 1884
4154 1884
4163 1884
4543 1884
4633 1884
4653 1884
4668 1884
4676 1884
4682 1884
4686 1884
4793 1884
4795 1884
4808 1884
2037 1885
1957 1886
2173 1886
2274 1886
2688 1886
2698 1886
2764 1886
2872 1886
3324 1886
3445 1886
3585 1886
3658 1886
4447 1886
4602 1886
2360 1887
2458 1887
2572 1887
3838 1887
3859 1887
3953 1887
4263 1887
4271 1887
4471 1887
4494 1887
2958 1888
3612 1888
3613 1888
3826 1888
4233 1888
4459 1888
2528 1889
2423 1890
2872 1890
1933 1892
2850 1892
2941 1892
3656 1892
3657 1892
3659 1892
4580 1892
4664 1893
4763 1893
3230 1895
3490 1895
2928 1896
3243 1897
4744 1897
1970 1898
2085 1898
2872 1898
2872 1899
2922 1899
2964 1899
3845 1899
4176 1899
4314 1899
4755 1899
2872 1900
2872 1901
3251 1903
2540 1904
2713 1904
2872 1904
2924 1904
3136 1904
3610 1904
3772 1904
2326 1905
3256 1906
4363 1907
2448 1908
2872 1908
3506 1908
4006 1908
4331 1908
2872 1909
2889 1909
2432 1910
2617 1910
2872 1910
1934 1911
2328 1911
2518 1911
2770 1911
2872 1911
3027 1911
3577 1911
3773 1911
4224 1911
4432 1911
4783 1911
3584 1912
2549 1913
2936 1913
1932 1914
2448 1914
2545 1914
2561 1914
2872 1914
2925 1914
2952 1914
3085 1914
3105 1914
3134 1914
3373 1914
3555 1914
3753 1914
4086 1914
4266 1914
4279 1914
4553 1914
4718 1914
4721 1914
3583 1915
2862 1916
2722 1919
2872 1919
4799 1919
3361 1920
4252 1921
4659 1921
4775 1921
2164 1922
2178 1922
2247 1922
2661 1922
2811 1922
2872 1922
3566 1922
4359 1922
2257 1923
3566 1924
4474 1926
2872 1928
3566 1928
2855 1929
2862 1929
4113 1929
2872 1930
3746 1930
3910 1930
4443 1930
3052 1931
3085 1932
2850 1933
2941 1933
3656 1933
3657 1933
3659 1933
4580 1933
2505 1934
2543 1934
2713 1934
2770 1934
2829 1934
2872 1934
3187 1934
3988 1934
3466 1935
4526 1935
3579 1936
4664 1936
2872 1938
4625 1938
4747 1939
2604 1940
2872 1940
3303 1940
3524 1940
3540 1940
3708 1940
3999 1940
2872 1941
3008 1941
3513 1941
4633 1941
4660 1941
2872 1942
2889 1942
4291 1942
2501 1943
2788 1943
3091 1943
4271 1943
4736 1943
1945 1944
2224 1944
3309 1944
4407 1944
2224 1945
3309 1945
4407 1945
2872 1946
3876 1946
2307 1948
2600 1948
2807 1948
3473 1948
3599 1948
4456 1948
2310 1949
2872 1949
4450 1949
2191 1950
3672 1951
1979 1952
2023 1952
2042 1952
2577 1952
2618 1952
2954 1952
3213 1952
3237 1952
3317 1952
3432 1952
4104 1952
2788 1954
2872 1954
3244 1954
3563 1954
3859 1954
2289 1955
2619 1955
2872 1955
3566 1955
2617 1957
2872 1957
4510 1957
2376 1958
2872 1959
3480 1960
4014 1961
1975 1962
2034 1962
2651 1962
3970 1962
3036 1963
3626 1963
2029 1965
2067 1965
2859 1965
4184 1965
4495 1965
4634 1965
2872 1967
2770 1968
3387 1968
3549 1968
3566 1969
2324 1970
2453 1970
2649 1970
2872 1970
3229 1970
3552 1970
4153 1970
2251 1971
3694 1971
2775 1973
2872 1973
3343 1973
4178 1974
2034 1975
2651 1975
3970 1975
3324 1977
3808 1977
2301 1978
4271 1978
2023 1979
2042 1979
2954 1979
3317 1979
3432 1979
4021 1979
4104 1979
4700 1979
4735 1979
2872 1980
3528 1980
3700 1980
3746 1981
2872 1982
2402 1983
2929 1983
4044 1983
4512 1983
4671 1983
2346 1984
2872 1984
4225 1984
3672 1985
3377 1986
2797 1988
3319 1988
4063 1988
3193 1989
2206 1990
4550 1990
2688 1991
2440 1992
3664 1993
3906 1995
2760 1996
2790 1996
2872 1996
3239 1996
3462 1996
3639 1996
3872 1996
3945 1996
4180 1996
2872 1997
3176 1997
3572 1997
3876 1997
4475 1997
4496 1997
2606 1998
3332 1998
4106 1998
4744 1998
4798 1998
2872 1999
4220 2001
2838 2003
3007 2003
4480 2003
4489 2003
3248 2004
4109 2004
2424 2005
2701 2005
2872 2005
3081 2005
3327 2005
3668 2005
3760 2005
3898 2005
4031 2005
4115 2005
4121 2005
2637 2007
2872 2007
2516 2008
2872 2008
3777 2008
4738 2008
2872 2009
3509 2010
4093 2011
3818 2012
4608 2012
2057 2013
2071 2013
2128 2013
2354 2013
2530 2013
2714 2013
2736 2013
2872 2013
2878 2013
2903 2013
2905 2013
2906 2013
2907 2013
2908 2013
2910 2013
2914 2013
3252 2013
3291 2013
3510 2013
3566 2013
3595 2013
3685 2013
3715 2013
4053 2013
4107 2013
4110 2013
4119 2013
4173 2013
4311 2013
4333 2013
4339 2013
4373 2013
4436 2013
4464 2013
4573 2013
4633 2013
4653 2013
4668 2013
4731 2013
4778 2013
4808 2013
2872 2014
2129 2015
2117 2016
2284 2016
2716 2016
2795 2016
2872 2016
2903 2016
2911 2016
2912 2016
2913 2016
2953 2016
3020 2016
3417 2016
3543 2016
3669 2016
3939 2016
4154 2016
4163 2016
4543 2016
4633 2016
4653 2016
4668 2016
4676 2016
4682 2016
4686 2016
4793 2016
4795 2016
4808 2016
3700 2017
2675 2019
4139 2021
2872 2022
2976 2022
2988 2022
4271 2022
4721 2022
2042 2023
2111 2023
2577 2023
2954 2023
3213 2023
3241 2023
3432 2023
3596 2023
3734 2023
4104 2023
3480 2024
2144 2025
2163 2026
2872 2026
4228 2026
2819 2028
2872 2028
3939 2029
2078 2030
2186 2030
2287 2030
2717 2030
2872 2030
2876 2030
2947 2030
3001 2030
3434 2030
3702 2030
4130 2030
4135 2030
4382 2030
4681 2030
3337 2031
4629 2032
2811 2033
3479 2033
3952 2033
4427 2033
2332 2034
2502 2034
3379 2034
3382 2034
3807 2034
3652 2035
3700 2035
3843 2036
4040 2039
2872 2041
2211 2042
2577 2042
3237 2042
3432 2042
4021 2042
4104 2042
4662 2042
2872 2043
3475 2043
3399 2044
2347 2045
2872 2046
2872 2047
3124 2047
4579 2047
2226 2048
2063 2049
2067 2049
2507 2049
2698 2049
2872 2051
2872 2052
3485 2053
2084 2055
2872 2055
3365 2055
3686 2055
4310 2055
2176 2056
2872 2056
2071 2057
2128 2057
2354 2057
2530 2057
2714 2057
2736 2057
2872 2057
2878 2057
2905 2057
2906 2057
2907 2057
2908 2057
2910 2057
2912 2057
2914 2057
3252 2057
3291 2057
3510 2057
3566 2057
3575 2057
3595 2057
3685 2057
3715 2057
4053 2057
4107 2057
4110 2057
4119 2057
4173 2057
4311 2057
4333 2057
4339 2057
4373 2057
4392 2057
4436 2057
4464 2057
4573 2057
4676 2057
4731 2057
4778 2057
3532 2058
3940 2060
2084 2061
2101 2061
2872 2061
2997 2061
3292 2061
3358 2061
3437 2061
3534 2061
3650 2061
4310 2061
4402 2061
4437 2061
4440 2061
4544 2061
2872 2062
2203 2063
2338 2063
2502 2063
2764 2063
2862 2063
2872 2063
3132 2063
3971 2063
4022 2063
4176 2063
4256 2063
4298 2063
4519 2063
2437 2065
2802 2065
2872 2065
3115 2065
3385 2065
3674 2065
4559 2065
4675 2065
2617 2066
2872 2066
2408 2067
2764 2067
2872 2067
2888 2067
3114 2067
3527 2067
4271 2067
4634 2067
2199 2068
2872 2068
2872 2069
3064 2069
3312 2069
2128 2071
2354 2071
2714 2071
2736 2071
2872 2071
2878 2071
2905 2071
2906 2071
2907 2071
2908 2071
2910 2071
2914 2071
3252 2071
3291 2071
3510 2071
3595 2071
3685 2071
3715 2071
4053 2071
4107 2071
4110 2071
4119 2071
4173 2071
4311 2071
4333 2071
4339 2071
4373 2071
4436 2071
4464 2071
4573 2071
4731 2071
2872 2072
4070 2072
4280 2072
2096 2073
2203 2073
3136 2073
3463 2073
3598 2073
3817 2073
4276 2073
2872 2074
4782 2074
2442 2077
2558 2077
2749 2077
2872 2077
3060 2077
3215 2077
3452 2077
3665 2077
4557 2077
4629 2077
4656 2077
4689 2077
2186 2078
2287 2078
2717 2078
3001 2078
3702 2078
4130 2078
4382 2078
4681 2078
2865 2079
2877 2080
4807 2080
2511 2083
2872 2083
3552 2083
4443 2083
2101 2084
2120 2084
2872 2084
2997 2084
3292 2084
3358 2084
3437 2084
3534 2084
3650 2084
4310 2084
4402 2084
4437 2084
4440 2084
4544 2084
3552 2085
2683 2087
2872 2087
2580 2088
2872 2088
2917 2088
2162 2089
2208 2089
2304 2089
2395 2089
2407 2089
2441 2089
2470 2089
2746 2089
2763 2089
3334 2089
3642 2089
4203 2089
4297 2089
4532 2089
4539 2089
4574 2089
4578 2089
4650 2089
4658 2089
4679 2089
3488 2091
2501 2092
3664 2092
4659 2092
4272 2093
2246 2095
4513 2095
4794 2095
2247 2097
2934 2097
3117 2097
3700 2097
4477 2097
2199 2098
2999 2098
3441 2098
4426 2098
2199 2100
4426 2100
2120 2101
2132 2101
2872 2101
2997 2101
3292 2101
3358 2101
3437 2101
3534 2101
3650 2101
4310 2101
4402 2101
4437 2101
4440 2101
4544 2101
2872 2102
3700 2103
3762 2103
4513 2103
4794 2103
3088 2104
2872 2105
2872 2106
3297 2106
2448 2107
4700 2107
3399 2108
2872 2109
2164 2110
3734 2111
4104 2111
3933 2112
2448 2113
2872 2114
4284 2114
3566 2115
2284 2117
2354 2117
2716 2117
2795 2117
2872 2117
2903 2117
2911 2117
2912 2117
2913 2117
2953 2117
3020 2117
3417 2117
3543 2117
3669 2117
3939 2117
3986 2117
4154 2117
4163 2117
4543 2117
4561 2117
4633 2117
4653 2117
4668 2117
4676 2117
4682 2117
4686 2117
4793 2117
4795 2117
4808 2117
2311 2118
2516 2118
2872 2118
2976 2118
3110 2118
3319 2118
4561 2118
4139 2119
3292 2120
3534 2120
3650 2120
4310 2120
4402 2120
4440 2120
4544 2120
2220 2123
2407 2123
2430 2123
2614 2123
3070 2123
3336 2123
3469 2123
3485 2123
3791 2123
4055 2123
4081 2123
4578 2123
2767 2124
3957 2124
3960 2124
2872 2125
3703 2126
4065 2126
2354 2128
2714 2128
2736 2128
2872 2128
2878 2128
2905 2128
2906 2128
2907 2128
2908 2128
2910 2128
2914 2128
3252 2128
3291 2128
3510 2128
3566 2128
3595 2128
3685 2128
3715 2128
4053 2128
4107 2128
4110 2128
4119 2128
4173 2128
4311 2128
4333 2128
4339 2128
4373 2128
4436 2128
4464 2128
4573 2128
4731 2128
3256 2129
4310 2132
2437 2133
2615 2133
2737 2134
3901 2135
2872 2136
3506 2136
4775 2136
2189 2137
2872 2137
3233 2137
3229 2138
3044 2140
4456 2141
3559 2142
3843 2142
4625 2143
2957 2144
3855 2144
2524 2145
4478 2147
4781 2147
4128 2148
2418 2149
2872 2149
3536 2149
3994 2149
4215 2149
4642 2149
3387 2150
3549 2150
2171 2151
3267 2152
2872 2153
2984 2153
3110 2153
3733 2153
2848 2154
3551 2155
4252 2156
4775 2156
2464 2157
2680 2157
3995 2158
3014 2159
3055 2159
3129 2159
3686 2159
4222 2159
4578 2159
2274 2160
3439 2160
4802 2160
3245 2161
3487 2161
3637 2161
3846 2161
4423 2161
2208 2162
2395 2162
2470 2162
2781 2162
2820 2162
2872 2162
3826 2162
4203 2162
4297 2162
2388 2164
2661 2164
3481 2164
3537 2164
3513 2166
4271 2166
4660 2166
3506 2167
4331 2167
2173 2168
2274 2168
2648 2168
2690 2168
2792 2168
2872 2168
3785 2168
3828 2168
3962 2168
4410 2168
2448 2169
2872 2169
4161 2170
4354 2172
2690 2173
2792 2173
2872 2173
3033 2173
3042 2173
2713 2174
3497 2174
2274 2175
2797 2175
2872 2175
3142 2175
3658 2175
3687 2175
3746 2175
3851 2175
4063 2175
2872 2176
3825 2176
4038 2176
2872 2177
2247 2178
2872 2178
2303 2179
2681 2179
2713 2179
2872 2179
2936 2179
3098 2179
3772 2179
4415 2179
4481 2179
4648 2179
4797 2179
3251 2180
4555 2181
2872 2182
2851 2183
2872 2184
3719 2185
3720 2185
2287 2186
2717 2186
3001 2186
3702 2186
4130 2186
4135 2186
4382 2186
4681 2186
2872 2187
2199 2188
2999 2188
2390 2190
2568 2190
3724 2190
2258 2191
2872 2191
3652 2193
2383 2194
2426 2194
2765 2194
3280 2194
3683 2194
3698 2194
4108 2194
4197 2194
2683 2195
2872 2195
3513 2195
3684 2195
4080 2195
4660 2195
2872 2196
3169 2197
3506 2197
2486 2198
2236 2199
2315 2199
2872 2199
3099 2199
3364 2199
3576 2199
3764 2199
3787 2199
3796 2199
3977 2199
3992 2199
4705 2199
4608 2200
3446 2202
2872 2204
4535 2204
4777 2204
2529 2205
4497 2206
4550 2206
3918 2207
2225 2208
2395 2208
2470 2208
2820 2208
2872 2208
2991 2208
3064 2208
3091 2208
3245 2208
3516 2208
3652 2208
3985 2208
4117 2208
4203 2208
4297 2208
4459 2208
4461 2208
4532 2208
4583 2208
4646 2208
2475 2209
3341 2209
3880 2210
2872 2212
3008 2212
3475 2212
4221 2212
2872 2213
3142 2213
2631 2214
2872 2214
3686 2214
3724 2214
4066 2214
4477 2214
2676 2215
4577 2215
2370 2216
3535 2216
3611 2216
3800 2216
3897 2216
4039 2216
4413 2216
4126 2217
4495 2217
2872 2218
2963 2218
3018 2218
3408 2218
4068 2218
4640 2218
3141 2219
3191 2219
2253 2220
2407 2220
2430 2220
2457 2220
3070 2220
3336 2220
3469 2220
3485 2220
3791 2220
4055 2220
4081 2220
4111 2220
4346 2220
4578 2220
2872 2221
2853 2222
3229 2222
4170 2222
2248 2223
2357 2223
2460 2223
3390 2223
4366 2223
2872 2226
2872 2227
2701 2228
2872 2228
3924 2228
2872 2229
3555 2229
2702 2230
2872 2230
3521 2230
2872 2231
4123 2232
4782 2232
2322 2233
2386 2233
2683 2233
2750 2233
2856 2233
2872 2233
3324 2233
3590 2233
3662 2233
4448 2233
4642 2233
4659 2234
4772 2235
2999 2236
2823 2237
2860 2237
2872 2237
2963 2237
3018 2237
3264 2237
3391 2237
3442 2237
3686 2237
4215 2237
4642 2237
2898 2238
4220 2239
3323 2240
2309 2241
3663 2241
4466 2241
4659 2241
3838 2242
2897 2244
3107 2245
3304 2245
4129 2245
2337 2246
2607 2246
2951 2246
2811 2247
2872 2247
3566 2247
3567 2247
4359 2247
4526 2247
2373 2248
2526 2248
2713 2250
2872 2250
3098 2250
3577 2250
2872 2252
2430 2253
2457 2253
2614 2253
2872 2253
3070 2253
3336 2253
3791 2253
4055 2253
4116 2253
4346 2253
4578 2253
2886 2254
4604 2254
4161 2256
2728 2257
3071 2257
3848 2257
4693 2257
4785 2257
3500 2258
3263 2259
4354 2260
4010 2261
2872 2262
2408 2263
2762 2263
2872 2263
4449 2265
2872 2266
2473 2267
3109 2267
3154 2267
2273 2269
2872 2269
3107 2269
2396 2270
2656 2270
2989 2270
3808 2270
2872 2272
3236 2272
2601 2273
2872 2273
3393 2273
3561 2273
2752 2274
2862 2274
3064 2274
3439 2274
3548 2274
3658 2274
4035 2274
4408 2274
4447 2274
4654 2274
4692 2274
4715 2274
4802 2274
2872 2275
3286 2275
2537 2277
4558 2278
4593 2279
2783 2280
4710 2281
2872 2282
3704 2283
2716 2284
2736 2284
2795 2284
2872 2284
2903 2284
2905 2284
2910 2284
2911 2284
2912 2284
2913 2284
2953 2284
3020 2284
3417 2284
3543 2284
3669 2284
3712 2284
3939 2284
4154 2284
4163 2284
4311 2284
4543 2284
4633 2284
4653 2284
4668 2284
4676 2284
4682 2284
4686 2284
4793 2284
4795 2284
4808 2284
2872 2285
2872 2286
2717 2287
2947 2287
3001 2287
3062 2287
3434 2287
3702 2287
4130 2287
4135 2287
4382 2287
4681 2287
2507 2288
2984 2288
3110 2288
3205 2288
3380 2288
3442 2288
4426 2288
2619 2289
2872 2289
3368 2289
3566 2289
4636 2289
2834 2290
2872 2290
3464 2290
4318 2291
2872 2292
2872 2294
3077 2294
3170 2294
3566 2294
4677 2294
2872 2295
3566 2295
2627 2296
2683 2297
2872 2297
3475 2297
2578 2299
4388 2300
3506 2302
4185 2302
2792 2303
2872 2303
3366 2303
3566 2303
4687 2303
2382 2304
2470 2304
4297 2304
4491 2304
3419 2305
3950 2305
2600 2307
2872 2309
3139 2309
3664 2309
4139 2309
4799 2309
2872 2310
4648 2311
2872 2312
2391 2314
2791 2314
2864 2314
3091 2314
4132 2314
4365 2314
4408 2314
2872 2317
2872 2319
4126 2319
2467 2320
2755 2320
4670 2321
2551 2322
2872 2322
3997 2322
2670 2323
2857 2323
2417 2324
2630 2324
2852 2324
3017 2324
3552 2324
3594 2324
3724 2324
4422 2324
4732 2324
2872 2325
3290 2325
3653 2326
2872 2327
3988 2328
2872 2329
3724 2329
4222 2329
2872 2330
3399 2331
4428 2332
2872 2334
2793 2335
2872 2336
2607 2337
2951 2337
4032 2337
2872 2338
4006 2338
4139 2338
4331 2338
4519 2338
2976 2339
3146 2340
4307 2340
2872 2341
3479 2341
3952 2341
4039 2342
3566 2343
4370 2344
4509 2344
3377 2345
2872 2348
2963 2349
3536 2349
3597 2349
3994 2349
4215 2349
4300 2349
4652 2349
3876 2350
2872 2351
3972 2353
4242 2353
4392 2353
4399 2353
4485 2353
2530 2354
2714 2354
2736 2354
2872 2354
2878 2354
2903 2354
2905 2354
2906 2354
2907 2354
2908 2354
2910 2354
2911 2354
2913 2354
2914 2354
3252 2354
3291 2354
3510 2354
3595 2354
3685 2354
3715 2354
3939 2354
4053 2354
4107 2354
4110 2354
4119 2354
4173 2354
4311 2354
4333 2354
4339 2354
4373 2354
4436 2354
4464 2354
4573 2354
4686 2354
4731 2354
4793 2354
2591 2355
2872 2356
2905 2356
2460 2357
3390 2357
2698 2358
4222 2358
2683 2359
3460 2359
3394 2360
3699 2361
3876 2361
2424 2362
2872 2362
3760 2362
2872 2363
2872 2364
2872 2366
4200 2367
3785 2368
3535 2370
3611 2370
3800 2370
3897 2370
4039 2370
4413 2370
4583 2371
3800 2372
3809 2372
3390 2373
3454 2373
2845 2374
3189 2377
4341 2377
2872 2378
3271 2378
3385 2381
2872 2382
4491 2382
2426 2383
3280 2383
3683 2383
3698 2383
3985 2383
4108 2383
4197 2383
4538 2383
2918 2385
3556 2385
2872 2387
3686 2387
3910 2387
2433 2388
4003 2388
4596 2388
2791 2391
2864 2391
2969 2391
3091 2391
4124 2391
4132 2391
4365 2391
4401 2391
4408 2391
2872 2392
2872 2393
2470 2395
2872 2396
4522 2398
2750 2399
4002 2399
4642 2399
2698 2400
4561 2400
3150 2401
3222 2401
4672 2401
4671 2402
2872 2403
4057 2403
3629 2404
4346 2404
4540 2404
2776 2405
2543 2406
2416 2407
2430 2407
2470 2407
2509 2407
2614 2407
2632 2407
2677 2407
2872 2407
3070 2407
3336 2407
3469 2407
3485 2407
3791 2407
4049 2407
4055 2407
4081 2407
4111 2407
4297 2407
4346 2407
4525 2407
4571 2407
4578 2407
4809 2407
2440 2408
2476 2408
2764 2408
2862 2408
2872 2408
3545 2408
3552 2408
3838 2408
3996 2408
4524 2408
2872 2409
3143 2409
2617 2410
2635 2410
2918 2410
2713 2411
4100 2411
2519 2412
2824 2412
3004 2412
3609 2412
4066 2412
4293 2412
4477 2412
4787 2412
3724 2413
2506 2414
2872 2414
3398 2414
2784 2415
2872 2415
4578 2416
3098 2417
3594 2417
4263 2417
2750 2418
2823 2418
2963 2418
3018 2418
3264 2418
3408 2418
3536 2418
3825 2418
4642 2418
2872 2419
2634 2420
3629 2420
4540 2420
2640 2421
2872 2421
3566 2421
4120 2421
4477 2421
2644 2422
2701 2424
2913 2424
3081 2424
3327 2424
3668 2424
3760 2424
3898 2424
4115 2424
4121 2424
3313 2425
2643 2426
3280 2426
3440 2426
3564 2426
3683 2426
3698 2426
3838 2426
3985 2426
4108 2426
4197 2426
2611 2427
4096 2427
4030 2428
3077 2429
3594 2429
4205 2429
4271 2429
4422 2429
3070 2430
3336 2430
3469 2430
3485 2430
3791 2430
4055 2430
4081 2430
4111 2430
4578 2430
3746 2431
4583 2431
2617 2432
2688 2432
2872 2432
2872 2433
3026 2433
3566 2433
4608 2433
3958 2434
2872 2435
2798 2436
2476 2437
2796 2437
2872 2437
3544 2437
3567 2437
3674 2437
4583 2437
2872 2438
3442 2438
3566 2439
4608 2439
2683 2440
2862 2440
2872 2440
3786 2440
2470 2441
4297 2441
2872 2442
3737 2442
4656 2442
2664 2443
2706 2443
3365 2443
3744 2443
4200 2443
4608 2443
4673 2445
3280 2447
3698 2447
3985 2447
2872 2448
2874 2448
2922 2448
2925 2448
2952 2448
3085 2448
3506 2448
3512 2448
3688 2448
3798 2448
3916 2448
4179 2448
4279 2448
4331 2448
4484 2448
2556 2449
3744 2449
2872 2450
4032 2451
2872 2455
2872 2456
3025 2456
3145 2456
3256 2456
4358 2456
4779 2456
4116 2457
2515 2459
2872 2459
4643 2459
2920 2460
3390 2460
4366 2460
4139 2461
3681 2463
4070 2463
4280 2463
2680 2464
2718 2465
2605 2466
2755 2467
2872 2467
2935 2467
4144 2467
2839 2468
4070 2468
2512 2469
2746 2470
2763 2470
3334 2470
3642 2470
4203 2470
4297 2470
4457 2470
4532 2470
4539 2470
4574 2470
4650 2470
4658 2470
4679 2470
3664 2472
3109 2473
3154 2473
3341 2475
2615 2476
4151 2477
4252 2480
4628 2480
4659 2480
2872 2481
3584 2481
2872 2482
2872 2483
2898 2484
3156 2485
3664 2485
3566 2487
3965 2488
4559 2488
3652 2489
2672 2490
3106 2490
3075 2491
4097 2491
4332 2491
2872 2492
3046 2493
3520 2493
4533 2493
2872 2494
3976 2495
3876 2498
2872 2499
4290 2500
2564 2501
2688 2501
2788 2501
2872 2501
2890 2501
3091 2501
3385 2501
3552 2501
3664 2501
3722 2501
3724 2501
3838 2501
4271 2501
4583 2501
4659 2501
2683 2504
2872 2504
3988 2505
4271 2505
2872 2506
3398 2506
2872 2507
2938 2507
3110 2507
3185 2507
3205 2507
3286 2507
3419 2507
4092 2507
4139 2507
4465 2507
2872 2508
4578 2509
2537 2510
2535 2511
2872 2511
3254 2511
4080 2511
4443 2511
4586 2511
2872 2513
3566 2513
2872 2514
4139 2514
2976 2516
4376 2516
4738 2516
3644 2517
2707 2518
2770 2518
2776 2518
3988 2518
2872 2519
3004 2519
4384 2519
4477 2519
2770 2521
2872 2522
2872 2523
3475 2523
3279 2525
3031 2526
4366 2526
3867 2527
4032 2527
4284 2527
2872 2528
2736 2530
2872 2530
2878 2530
2903 2530
2906 2530
2908 2530
2912 2530
2914 2530
3252 2530
3685 2530
3715 2530
4107 2530
4110 2530
4163 2530
4333 2530
4573 2530
4633 2530
4653 2530
4686 2530
4778 2530
4808 2530
3566 2532
3116 2533
2866 2534
2872 2534
2889 2534
3582 2534
3823 2534
2872 2535
4443 2535
3290 2536
2872 2537
3515 2537
2872 2539
3124 2539
3478 2539
3585 2539
2872 2541
3064 2541
2872 2543
2936 2543
3229 2543
3664 2544
3085 2545
4718 2545
4071 2546
2872 2548
4358 2548
2872 2549
4515 2550
2872 2551
3362 2551
2872 2552
4084 2552
4793 2552
3623 2555
4554 2555
3744 2556
2898 2557
2936 2557
3098 2557
3710 2557
2872 2558
3215 2558
3452 2558
3665 2558
3895 2558
3932 2558
3946 2558
4557 2558
4588 2558
4656 2558
4689 2558
3920 2560
4145 2560
2713 2562
2936 2562
3098 2562
4127 2562
4354 2562
2727 2564
2788 2564
2862 2564
2872 2564
3108 2564
3552 2564
3563 2564
3724 2564
3739 2564
3859 2564
3886 2564
3961 2564
4253 2564
2872 2565
3170 2565
3333 2565
3876 2565
3566 2566
3491 2567
3628 2568
3566 2569
2723 2570
3350 2570
3435 2570
3570 2570
3884 2571
2819 2573
2872 2575
3533 2576
4618 2576
2618 2577
3213 2577
3237 2577
3241 2577
3432 2577
3734 2577
4021 2577
4104 2577
4388 2579
4595 2579
3927 2580
4321 2580
3663 2582
3664 2582
4659 2582
3569 2584
4577 2584
4647 2584
2834 2585
2872 2585
3464 2585
2872 2587
2982 2589
3025 2590
3305 2590
4185 2590
2950 2592
2872 2594
4341 2596
2737 2597
4370 2597
4509 2597
2839 2599
4721 2599
3757 2600
3759 2600
2872 2601
3393 2601
3561 2601
3838 2601
4673 2602
3153 2603
3159 2603
3866 2604
4268 2605
2872 2606
3332 2606
2951 2607
2872 2608
4184 2609
2872 2610
3326 2610
3365 2610
3713 2610
4519 2610
2862 2612
2683 2613
4116 2614
4578 2614
2796 2615
2872 2615
3544 2615
3664 2615
2872 2616
2688 2617
2694 2617
2872 2617
3513 2617
3610 2617
3724 2617
3739 2617
3741 2617
3839 2617
4173 2617
4561 2617
4800 2617
2872 2618
2872 2619
3368 2619
3566 2619
4048 2619
4624 2619
2872 2620
3689 2622
3970 2622
2628 2623
4426 2624
4578 2625
4559 2629
4263 2630
4591 2630
4601 2633
3629 2634
4346 2634
4540 2634
3075 2636
4097 2636
4332 2636
2872 2637
3755 2637
2833 2638
3144 2638
4009 2638
4589 2638
4790 2638
2872 2639
2792 2640
2872 2640
4070 2640
2872 2641
2827 2642
2872 2642
3566 2642
3564 2643
3637 2643
2928 2645
3006 2647
2872 2649
3506 2649
3552 2649
2698 2650
2781 2650
2872 2650
3369 2650
3935 2650
4753 2650
2819 2652
3170 2652
4537 2652
4782 2652
2872 2653
3808 2656
2862 2658
2872 2660
3566 2661
3700 2661
4428 2663
2706 2664
2872 2665
3724 2668
2872 2669
2872 2671
2872 2673
2872 2674
4577 2676
4578 2677
3114 2678
4191 2678
2933 2679
4708 2679
2814 2681
2872 2681
3255 2681
3766 2681
4067 2681
4142 2681
2750 2683
2872 2683
2976 2683
3125 2683
3132 2683
3268 2683
3428 2683
3460 2683
3475 2683
3608 2683
3739 2683
3766 2683
4044 2683
4078 2683
4158 2683
4433 2683
4443 2683
4786 2683
3116 2684
3122 2686
2872 2688
3113 2688
3307 2688
3599 2688
3664 2688
4066 2688
4477 2688
4561 2688
4633 2688
4721 2688
2872 2689
2749 2690
2872 2690
3005 2690
3737 2690
3744 2690
3932 2690
4629 2690
3135 2692
3193 2693
3664 2693
4066 2693
4263 2693
4446 2693
4732 2693
3239 2694
2936 2695
4631 2695
2872 2696
4040 2697
2764 2698
2872 2698
2936 2698
3032 2698
3324 2698
2872 2699
3324 2699
3824 2699
3297 2700
2860 2701
2872 2701
3327 2701
3760 2701
4031 2701
4115 2701
2872 2702
3033 2702
3371 2702
3454 2702
3566 2702
3689 2702
3970 2702
4058 2702
2737 2704
2873 2704
4370 2704
4509 2704
3365 2706
4200 2706
2770 2707
2829 2707
3415 2707
3761 2708
4485 2709
2872 2710
3184 2710
4414 2710
4671 2711
3790 2712
2770 2713
2776 2713
2870 2713
2872 2713
2978 2713
2981 2713
3098 2713
3158 2713
3188 2713
3270 2713
3380 2713
3577 2713
3604 2713
3610 2713
3633 2713
3766 2713
3806 2713
3938 2713
3988 2713
3992 2713
4142 2713
4169 2713
4276 2713
4354 2713
4432 2713
4777 2713
4799 2713
2736 2714
2872 2714
2878 2714
2905 2714
2906 2714
2907 2714
2908 2714
2910 2714
2914 2714
3252 2714
3291 2714
3510 2714
3595 2714
3685 2714
3715 2714
4053 2714
4107 2714
4110 2714
4119 2714
4173 2714
4311 2714
4333 2714
4339 2714
4373 2714
4436 2714
4464 2714
4573 2714
4731 2714
2795 2716
2872 2716
2903 2716
2911 2716
2912 2716
2913 2716
2953 2716
3020 2716
3417 2716
3543 2716
3669 2716
3939 2716
4154 2716
4163 2716
4543 2716
4561 2716
4633 2716
4653 2716
4668 2716
4676 2716
4682 2716
4686 2716
4793 2716
4795 2716
4808 2716
2947 2717
3001 2717
3434 2717
3702 2717
4130 2717
4382 2717
4681 2717
2870 2719
4169 2719
2872 2720
3098 2720
3360 2720
3566 2721
2999 2722
3435 2723
3628 2723
3792 2723
4232 2724
4086 2725
3751 2726
2872 2727
4660 2727
4800 2727
3071 2728
3485 2728
3848 2728
3919 2728
4785 2728
2872 2729
3566 2729
2872 2730
3629 2731
4346 2731
4540 2731
2872 2735
2872 2736
2878 2736
2905 2736
2906 2736
2907 2736
2908 2736
2910 2736
2914 2736
3252 2736
3291 2736
3510 2736
3566 2736
3595 2736
3685 2736
3715 2736
4053 2736
4107 2736
4110 2736
4119 2736
4173 2736
4311 2736
4333 2736
4339 2736
4373 2736
4436 2736
4464 2736
4573 2736
4731 2736
2872 2738
4566 2739
4622 2739
4168 2740
3506 2741
2872 2743
4066 2743
4275 2743
2872 2744
4433 2745
4297 2746
3487 2747
4423 2747
2872 2748
3324 2748
3737 2749
2872 2750
3018 2750
3714 2750
3825 2750
4215 2750
4222 2750
4642 2750
2872 2751
2872 2752
3170 2752
3515 2752
3724 2752
3838 2752
4035 2752
4408 2752
4561 2752
4802 2752
3871 2753
4023 2753
3423 2754
2872 2755
2785 2757
2872 2757
3108 2757
4346 2759
3063 2760
3239 2760
4180 2760
4629 2760
2872 2761
3497 2761
4203 2763
4297 2763
2872 2764
2936 2764
3326 2764
4298 2764
4593 2764
4117 2765
3957 2767
3115 2768
3130 2768
3837 2768
4345 2768
2776 2770
2777 2770
2829 2770
3155 2770
3270 2770
3988 2770
4265 2770
2872 2771
3085 2772
4718 2772
3788 2773
3789 2773
2872 2774
3566 2774
3566 2775
2872 2776
2981 2776
3098 2776
3229 2776
3592 2776
3886 2776
4127 2776
4128 2776
4354 2776
2924 2777
3988 2777
4355 2777
2872 2778
3110 2779
2872 2780
4321 2780
2872 2781
3935 2781
2841 2783
2872 2783
3044 2783
3974 2783
2872 2784
2872 2786
3178 2787
4229 2787
4351 2787
4776 2787
2872 2788
3085 2788
3108 2788
3506 2788
3744 2788
3859 2788
3908 2788
4066 2788
4200 2788
4608 2788
2804 2789
3063 2790
3239 2790
4180 2790
3091 2791
4132 2791
2872 2792
3042 2792
4481 2792
3349 2793
2872 2794
2872 2795
2903 2795
2911 2795
2912 2795
2913 2795
2953 2795
3020 2795
3417 2795
3543 2795
3566 2795
3669 2795
3685 2795
3939 2795
4107 2795
4110 2795
4154 2795
4163 2795
4543 2795
4633 2795
4653 2795
4668 2795
4676 2795
4682 2795
4686 2795
4793 2795
4795 2795
4808 2795
2872 2796
3852 2796
3040 2797
3041 2797
3907 2797
3966 2797
2872 2798
4109 2798
4013 2801
2872 2805
3783 2806
2872 2807
3037 2807
4769 2807
2872 2808
3855 2808
2872 2809
2872 2810
3566 2811
3567 2811
3952 2811
4427 2811
4526 2811
4677 2811
4803 2811
3979 2812
4426 2816
2872 2817
4187 2818
2872 2819
3316 2819
4459 2820
4003 2821
4485 2821
2840 2822
2872 2823
3018 2823
3055 2823
3124 2823
3264 2823
3686 2823
3786 2823
3825 2823
4215 2823
4222 2823
4066 2824
4477 2824
3359 2825
3367 2825
3491 2825
3866 2825
4305 2825
2872 2826
2999 2828
3864 2828
2872 2829
3229 2829
3566 2829
2872 2830
4059 2831
4626 2831
2859 2832
4426 2832
3867 2833
4009 2833
4628 2833
2872 2834
3149 2834
3464 2834
3797 2834
3810 2834
3942 2834
4424 2834
2872 2835
4204 2835
2872 2836
2872 2837
3731 2837
4044 2837
2872 2838
3115 2838
3843 2838
3876 2838
4487 2838
2872 2839
2967 2839
3156 2839
3343 2839
3592 2839
4561 2839
4594 2839
4097 2841
4200 2842
4691 2843
2902 2844
2872 2845
3957 2845
4006 2845
4331 2845
4583 2845
3647 2847
3301 2848
3707 2848
4113 2848
4184 2848
4189 2848
4295 2848
4764 2848
2941 2850
3656 2850
3657 2850
3659 2850
4580 2850
3098 2852
3594 2852
4422 2852
3928 2853
3929 2853
2862 2855
4664 2857
2928 2858
2940 2859
3005 2859
3384 2859
3518 2859
3864 2859
2872 2860
2889 2860
2995 2860
3013 2860
3244 2860
3324 2860
3733 2860
3911 2860
4202 2860
4222 2860
4253 2860
4642 2860
3552 2861
2872 2862
2930 2862
3173 2862
3352 2862
3378 2862
3410 2862
3506 2862
3664 2862
3675 2862
3724 2862
3729 2862
3811 2862
4249 2862
4370 2862
4660 2862
4722 2862
4802 2862
4139 2863
3091 2864
4132 2864
4408 2864
2872 2865
3175 2865
2872 2866
3593 2866
4414 2866
2964 2867
2872 2868
2872 2869
3232 2869
2872 2870
4201 2870
4472 2870
4670 2870
4583 2871
2876 2872
2877 2872
2878 2872
2879 2872
2881 2872
2887 2872
2889 2872
2890 2872
2891 2872
2898 2872
2899 2872
2903 2872
2905 2872
2906 2872
2907 2872
2908 2872
2909 2872
2911 2872
2912 2872
2913 2872
2914 2872
2915 2872
2924 2872
2928 2872
2930 2872
2932 2872
2934 2872
2936 2872
2937 2872
2939 2872
2940 2872
2942 2872
2944 2872
2948 2872
2950 2872
2952 2872
2953 2872
2956 2872
2957 2872
2959 2872
2962 2872
2970 2872
2971 2872
2976 2872
2977 2872
2980 2872
2981 2872
2986 2872
2990 2872
2991 2872
2995 2872
2997 2872
2999 2872
3004 2872
3005 2872
3008 2872
3009 2872
3010 2872
3012 2872
3013 2872
3014 2872
3018 2872
3020 2872
3023 2872
3025 2872
3029 2872
3032 2872
3033 2872
3036 2872
3038 2872
3042 2872
3043 2872
3046 2872
3049 2872
3050 2872
3053 2872
3055 2872
3057 2872
3061 2872
3062 2872
3063 2872
3064 2872
3065 2872
3067 2872
3068 2872
3073 2872
3077 2872
3083 2872
3085 2872
3086 2872
3089 2872
3092 2872
3093 2872
3094 2872
3098 2872
3102 2872
3106 2872
3107 2872
3110 2872
3112 2872
3114 2872
3119 2872
3124 2872
3125 2872
3127 2872
3128 2872
3132 2872
3133 2872
3140 2872
3142 2872
3149 2872
3151 2872
3152 2872
3156 2872
3157 2872
3161 2872
3162 2872
3164 2872
3170 2872
3174 2872
3176 2872
3179 2872
3181 2872
3182 2872
3183 2872
3184 2872
3190 2872
3198 2872
3200 2872
3201 2872
3210 2872
3215 2872
3218 2872
3224 2872
3225 2872
3226 2872
3227 2872
3229 2872
3234 2872
3235 2872
3236 2872
3238 2872
3239 2872
3244 2872
3252 2872
3253 2872
3256 2872
3260 2872
3261 2872
3264 2872
3266 2872
3271 2872
3273 2872
3275 2872
3276 2872
3279 2872
3285 2872
3286 2872
3292 2872
3293 2872
3294 2872
3300 2872
3302 2872
3306 2872
3312 2872
3315 2872
3316 2872
3318 2872
3319 2872
3320 2872
3321 2872
3324 2872
3327 2872
3329 2872
3333 2872
3334 2872
3338 2872
3343 2872
3344 2872
3348 2872
3353 2872
3355 2872
3357 2872
3358 2872
3360 2872
3362 2872
3366 2872
3371 2872
3374 2872
3377 2872
3378 2872
3381 2872
3384 2872
3386 2872
3398 2872
3399 2872
3406 2872
3408 2872
3409 2872
3413 2872
3414 2872
3416 2872
3417 2872
3418 2872
3420 2872
3430 2872
3434 2872
3437 2872
3438 2872
3442 2872
3445 2872
3450 2872
3451 2872
3452 2872
3453 2872
3455 2872
3458 2872
3460 2872
3461 2872
3464 2872
3465 2872
3470 2872
3475 2872
3476 2872
3477 2872
3478 2872
3491 2872
3495 2872
3496 2872
3497 2872
3501 2872
3507 2872
3510 2872
3511 2872
3513 2872
3516 2872
3521 2872
3523 2872
3524 2872
3525 2872
3526 2872
3528 2872
3529 2872
3530 2872
3534 2872
3539 2872
3541 2872
3543 2872
3546 2872
3552 2872
3553 2872
3555 2872
3558 2872
3562 2872
3563 2872
3566 2872
3573 2872
3574 2872
3575 2872
3580 2872
3581 2872
3582 2872
3585 2872
3592 2872
3593 2872
3594 2872
3603 2872
3606 2872
3607 2872
3613 2872
3614 2872
3616 2872
3618 2872
3619 2872
3621 2872
3622 2872
3624 2872
3625 2872
3627 2872
3631 2872
3632 2872
3636 2872
3640 2872
3643 2872
3650 2872
3652 2872
3661 2872
3662 2872
3663 2872
3664 2872
3665 2872
3669 2872
3674 2872
3677 2872
3681 2872
3682 2872
3685 2872
3686 2872
3689 2872
3691 2872
3695 2872
3696 2872
3705 2872
3715 2872
3724 2872
3727 2872
3730 2872
3731 2872
3733 2872
3735 2872
3738 2872
3739 2872
3740 2872
3741 2872
3746 2872
3748 2872
3750 2872
3752 2872
3753 2872
3760 2872
3763 2872
3764 2872
3766 2872
3769 2872
3776 2872
3781 2872
3783 2872
3785 2872
3786 2872
3792 2872
3793 2872
3794 2872
3801 2872
3806 2872
3808 2872
3809 2872
3810 2872
3819 2872
3820 2872
3824 2872
3825 2872
3828 2872
3829 2872
3832 2872
3835 2872
3836 2872
3838 2872
3840 2872
3841 2872
3842 2872
3849 2872
3852 2872
3853 2872
3854 2872
3855 2872
3859 2872
3863 2872
3866 2872
3867 2872
3873 2872
3876 2872
3879 2872
3889 2872
3892 2872
3893 2872
3894 2872
3899 2872
3902 2872
3903 2872
3910 2872
3911 2872
3915 2872
3916 2872
3917 2872
3921 2872
3927 2872
3932 2872
3935 2872
3937 2872
3939 2872
3940 2872
3942 2872
3947 2872
3951 2872
3952 2872
3955 2872
3956 2872
3959 2872
3968 2872
3972 2872
3978 2872
3979 2872
3980 2872
3982 2872
3986 2872
3988 2872
3992 2872
4000 2872
4003 2872
4012 2872
4022 2872
4029 2872
4030 2872
4031 2872
4038 2872
4043 2872
4044 2872
4047 2872
4051 2872
4052 2872
4053 2872
4054 2872
4062 2872
4063 2872
4065 2872
4066 2872
4069 2872
4070 2872
4073 2872
4074 2872
4075 2872
4077 2872
4078 2872
4079 2872
4080 2872
4086 2872
4087 2872
4089 2872
4090 2872
4092 2872
4094 2872
4098 2872
4101 2872
4107 2872
4110 2872
4112 2872
4113 2872
4115 2872
4116 2872
4121 2872
4122 2872
4126 2872
4135 2872
4138 2872
4139 2872
4142 2872
4143 2872
4147 2872
4152 2872
4157 2872
4158 2872
4159 2872
4160 2872
4163 2872
4165 2872
4166 2872
4168 2872
4172 2872
4174 2872
4175 2872
4178 2872
4183 2872
4186 2872
4188 2872
4198 2872
4202 2872
4204 2872
4206 2872
4207 2872
4213 2872
4214 2872
4215 2872
4219 2872
4221 2872
4222 2872
4227 2872
4229 2872
4230 2872
4237 2872
4239 2872
4240 2872
4241 2872
4243 2872
4244 2872
4248 2872
4251 2872
4252 2872
4253 2872
4254 2872
4259 2872
4262 2872
4266 2872
4271 2872
4278 2872
4280 2872
4281 2872
4287 2872
4288 2872
4293 2872
4297 2872
4309 2872
4310 2872
4312 2872
4313 2872
4321 2872
4327 2872
4329 2872
4330 2872
4331 2872
4333 2872
4337 2872
4343 2872
4358 2872
4359 2872
4360 2872
4362 2872
4368 2872
4370 2872
4371 2872
4373 2872
4375 2872
4376 2872
4381 2872
4382 2872
4387 2872
4390 2872
4392 2872
4397 2872
4401 2872
4402 2872
4412 2872
4414 2872
4417 2872
4420 2872
4425 2872
4426 2872
4427 2872
4430 2872
4433 2872
4436 2872
4440 2872
4441 2872
4443 2872
4448 2872
4455 2872
4458 2872
4462 2872
4469 2872
4470 2872
4473 2872
4474 2872
4475 2872
4477 2872
4479 2872
4481 2872
4482 2872
4488 2872
4495 2872
4500 2872
4502 2872
4510 2872
4519 2872
4521 2872
4522 2872
4535 2872
4543 2872
4544 2872
4554 2872
4556 2872
4557 2872
4559 2872
4561 2872
4564 2872
4568 2872
4577 2872
4578 2872
4579 2872
4581 2872
4582 2872
4583 2872
4584 2872
4587 2872
4590 2872
4593 2872
4594 2872
4597 2872
4607 2872
4608 2872
4609 2872
4614 2872
4617 2872
4619 2872
4628 2872
4629 2872
4630 2872
4633 2872
4637 2872
4640 2872
4642 2872
4647 2872
4648 2872
4651 2872
4653 2872
4655 2872
4656 2872
4659 2872
4660 2872
4661 2872
4663 2872
4665 2872
4669 2872
4676 2872
4680 2872
4681 2872
4685 2872
4686 2872
4687 2872
4689 2872
4695 2872
4697 2872
4698 2872
4699 2872
4702 2872
4704 2872
4706 2872
4709 2872
4710 2872
4713 2872
4714 2872
4720 2872
4721 2872
4724 2872
4726 2872
4727 2872
4729 2872
4731 2872
4736 2872
4737 2872
4739 2872
4743 2872
4744 2872
4748 2872
4752 2872
4753 2872
4754 2872
4763 2872
4769 2872
4774 2872
4778 2872
4780 2872
4782 2872
4784 2872
4787 2872
4789 2872
4791 2872
4793 2872
4795 2872
4799 2872
4800 2872
4802 2872
4178 2875
3062 2876
4135 2876
4681 2876
3132 2877
4064 2877
4807 2877
2905 2878
2906 2878
2907 2878
2908 2878
2910 2878
2914 2878
3252 2878
3291 2878
3510 2878
3595 2878
3685 2878
3715 2878
4053 2878
4107 2878
4110 2878
4119 2878
4173 2878
4311 2878
4333 2878
4339 2878
4373 2878
4436 2878
4464 2878
4573 2878
4731 2878
4778 2878
4808 2878
2963 2879
3264 2879
4215 2879
2940 2880
3767 2880
4263 2880
4178 2883
3847 2885
3363 2887
4633 2888
2899 2889
3055 2889
3181 2889
3384 2889
3526 2889
3592 2889
3686 2889
4222 2889
3664 2890
3670 2890
3750 2890
4583 2890
4603 2890
4560 2892
4398 2894
4045 2895
3373 2896
4369 2896
3847 2898
4253 2899
3968 2900
4185 2901
2911 2903
2912 2903
2913 2903
2914 2903
2953 2903
3020 2903
3417 2903
3543 2903
3669 2903
3685 2903
3939 2903
4107 2903
4154 2903
4163 2903
4543 2903
4633 2903
4653 2903
4668 2903
4676 2903
4682 2903
4686 2903
4793 2903
4795 2903
4808 2903
2906 2905
2907 2905
2908 2905
2910 2905
2914 2905
3252 2905
3291 2905
3510 2905
3566 2905
3595 2905
3685 2905
3715 2905
4053 2905
4107 2905
4110 2905
4119 2905
4173 2905
4311 2905
4333 2905
4339 2905
4373 2905
4436 2905
4464 2905
4573 2905
4653 2905
4731 2905
4778 2905
2907 2906
2908 2906
2910 2906
2912 2906
2914 2906
3252 2906
3291 2906
3510 2906
3566 2906
3595 2906
3685 2906
3715 2906
3939 2906
4053 2906
4107 2906
4110 2906
4119 2906
4173 2906
4311 2906
4333 2906
4339 2906
4373 2906
4436 2906
4464 2906
4573 2906
4633 2906
4653 2906
4668 2906
4676 2906
4731 2906
2908 2907
2910 2907
2912 2907
2914 2907
2953 2907
3252 2907
3291 2907
3510 2907
3575 2907
3595 2907
3685 2907
3715 2907
4053 2907
4107 2907
4110 2907
4119 2907
4173 2907
4311 2907
4333 2907
4339 2907
4373 2907
4436 2907
4464 2907
4573 2907
4653 2907
4731 2907
4778 2907
2910 2908
2911 2908
2914 2908
3252 2908
3291 2908
3510 2908
3566 2908
3595 2908
3685 2908
3715 2908
4053 2908
4107 2908
4110 2908
4119 2908
4173 2908
4311 2908
4333 2908
4339 2908
4373 2908
4436 2908
4464 2908
4573 2908
4731 2908
4778 2908
3430 2909
2911 2910
2914 2910
2953 2910
3252 2910
3291 2910
3510 2910
3595 2910
3685 2910
3715 2910
4053 2910
4107 2910
4110 2910
4119 2910
4173 2910
4311 2910
4333 2910
4339 2910
4373 2910
4436 2910
4464 2910
4573 2910
4676 2910
4731 2910
4793 2910
2912 2911
2913 2911
2914 2911
2953 2911
3020 2911
3417 2911
3543 2911
3669 2911
3939 2911
4107 2911
4110 2911
4154 2911
4163 2911
4543 2911
4633 2911
4653 2911
4668 2911
4676 2911
4682 2911
4686 2911
4793 2911
4795 2911
4808 2911
2913 2912
2914 2912
2953 2912
3020 2912
3417 2912
3543 2912
3669 2912
3715 2912
3939 2912
4107 2912
4110 2912
4154 2912
4163 2912
4311 2912
4543 2912
4633 2912
4653 2912
4668 2912
4676 2912
4682 2912
4686 2912
4793 2912
4795 2912
4808 2912
2953 2913
3020 2913
3417 2913
3543 2913
3669 2913
3939 2913
4154 2913
4163 2913
4543 2913
4633 2913
4653 2913
4668 2913
4676 2913
4682 2913
4686 2913
4793 2913
4795 2913
4808 2913
3252 2914
3291 2914
3510 2914
3595 2914
3685 2914
3715 2914
4053 2914
4107 2914
4110 2914
4119 2914
4163 2914
4173 2914
4311 2914
4333 2914
4339 2914
4373 2914
4436 2914
4464 2914
4543 2914
4573 2914
4686 2914
4731 2914
4778 2914
3551 2915
3124 2916
4504 2919
4758 2919
4099 2921
3839 2923
3889 2923
3604 2924
3610 2924
3886 2924
4169 2924
4354 2924
2952 2925
3085 2925
4066 2927
4494 2927
4626 2929
3537 2934
3566 2934
3380 2936
3549 2936
4354 2936
4631 2936
3033 2937
3042 2937
3946 2939
3656 2941
3657 2941
3659 2941
4580 2941
3293 2943
3001 2947
3702 2947
4130 2947
4382 2947
4681 2947
3133 2949
3582 2949
3733 2949
4561 2949
4352 2950
4452 2950
3566 2951
4009 2951
4032 2951
3085 2952
3020 2953
3417 2953
3543 2953
3669 2953
3939 2953
4154 2953
4163 2953
4543 2953
4633 2953
4653 2953
4668 2953
4676 2953
4682 2953
4686 2953
4793 2953
4795 2953
4808 2953
3317 2954
4700 2954
3297 2955
3733 2956
3612 2958
3613 2958
4141 2958
4696 2959
4346 2960
3018 2963
3391 2963
3408 2963
3686 2963
4215 2963
4329 2963
3793 2965
4393 2968
4484 2972
3224 2973
3444 2973
3228 2974
3055 2976
3257 2976
3459 2976
3460 2976
3686 2976
4412 2976
4621 2976
3006 2978
3948 2978
4065 2978
4039 2979
4377 2981
4432 2981
4805 2982
2991 2983
3110 2984
3132 2984
3187 2984
3380 2984
3585 2984
4385 2984
4426 2984
3970 2989
3570 2992
3970 2994
3295 2996
3473 2996
4456 2996
3292 2997
3358 2997
3437 2997
3534 2997
3650 2997
4010 2997
4310 2997
4402 2997
4440 2997
4544 2997
3286 2998
3204 2999
3222 2999
3364 2999
3764 2999
4799 2999
3436 3000
3601 3000
3603 3000
3062 3001
3335 3001
3434 3001
3702 3001
4130 3001
4135 3001
4382 3001
4681 3001
4066 3004
4070 3004
4384 3004
4477 3004
3633 3006
3948 3006
4505 3006
3433 3007
4480 3007
4489 3007
4490 3007
3055 3008
3475 3008
4221 3008
3749 3011
4447 3011
4654 3011
4360 3014
4578 3014
3130 3017
4263 3017
4422 3017
4591 3017
3062 3018
3408 3018
3536 3018
3786 3018
4135 3018
4215 3018
3171 3019
3417 3020
3543 3020
3669 3020
3745 3020
3939 3020
4110 3020
4154 3020
4163 3020
4173 3020
4311 3020
4543 3020
4633 3020
4653 3020
4668 3020
4676 3020
4682 3020
4686 3020
4793 3020
4795 3020
4808 3020
3970 3022
3877 3024
4289 3024
3256 3025
3340 3025
3865 3025
4185 3025
3566 3026
3399 3028
4486 3028
3480 3031
4366 3031
3055 3032
3378 3032
3686 3032
4293 3032
3476 3033
3566 3033
3689 3033
3970 3033
3286 3034
3566 3036
3626 3036
4088 3036
3686 3038
4763 3038
3057 3042
3102 3042
4075 3042
4357 3044
3764 3048
3091 3049
3118 3049
3663 3049
3664 3049
3921 3049
3936 3049
4659 3049
3629 3051
3072 3052
3340 3053
3447 3054
3244 3055
3362 3055
3794 3055
4202 3055
4561 3055
4583 3055
3664 3056
4659 3056
3193 3057
3664 3057
3944 3057
4482 3059
3932 3060
3686 3062
4222 3062
4681 3062
3239 3063
3872 3063
4180 3063
3091 3064
3301 3064
3566 3064
4802 3064
4748 3067
3336 3070
3469 3070
3485 3070
3791 3070
4055 3070
4081 3070
4111 3070
4116 3070
4346 3070
4578 3070
4693 3071
4785 3071
4704 3072
3132 3074
4097 3075
4164 3075
4332 3075
4105 3076
3115 3077
3170 3077
3663 3077
3795 3077
4252 3077
4782 3077
3792 3078
4198 3078
3566 3080
3664 3080
4659 3080
3327 3081
3760 3081
3261 3082
4178 3082
3875 3084
3552 3085
3753 3085
4266 3085
4553 3085
4721 3085
3437 3089
4310 3089
4294 3090
3193 3091
3229 3091
3548 3091
3664 3091
3724 3091
4124 3091
4132 3091
4365 3091
4401 3091
4408 3091
4583 3091
4659 3091
3322 3097
4300 3097
3130 3098
3229 3098
3410 3098
3577 3098
3610 3098
3633 3098
3718 3098
3724 3098
3938 3098
3992 3098
4354 3098
4414 3098
4633 3098
4660 3098
4732 3098
3324 3103
3566 3104
3630 3104
4624 3104
3412 3106
4545 3106
3205 3107
3304 3107
3492 3107
3154 3109
3380 3110
3392 3110
3684 3110
4044 3110
3687 3111
4009 3111
3292 3112
4010 3112
4544 3112
4766 3112
3130 3115
4345 3115
4487 3115
4691 3115
3636 3116
3838 3116
4441 3116
3663 3118
3664 3118
3921 3118
3936 3118
4659 3118
3689 3120
3970 3120
3277 3123
3585 3124
3808 3124
4094 3124
4209 3124
4579 3124
4347 3125
4028 3126
4111 3129
4578 3129
3837 3130
4264 3130
3646 3131
3739 3131
3714 3132
4807 3132
3582 3133
4718 3134
4367 3136
3552 3137
4503 3137
3319 3142
3385 3142
3746 3142
3876 3142
4063 3142
3466 3143
4790 3144
4113 3145
4307 3146
4648 3147
4280 3148
3464 3149
3810 3149
3942 3149
4583 3149
3222 3150
4672 3150
3664 3156
3876 3156
4659 3156
4432 3158
3989 3159
4208 3159
3397 3160
3840 3166
4330 3166
4298 3167
3873 3169
3321 3170
3566 3170
3664 3170
4481 3170
3566 3175
3673 3175
4608 3175
4229 3178
4351 3178
4299 3179
4563 3179
4489 3180
4253 3181
3325 3187
3380 3187
3552 3187
3746 3187
4204 3187
4219 3187
4243 3187
4426 3187
4341 3189
4386 3190
3415 3192
4765 3192
3663 3193
3664 3193
3859 3193
3889 3193
3921 3193
4263 3193
4300 3193
4446 3193
4659 3193
3515 3194
3770 3195
4161 3197
3236 3198
3686 3198
4410 3199
3566 3200
3435 3202
3570 3202
3442 3205
3747 3206
3362 3208
3671 3211
3689 3211
3970 3211
3566 3212
3237 3213
3432 3213
3734 3213
4021 3213
4735 3213
4236 3214
3452 3215
3665 3215
3932 3215
4557 3215
4656 3215
4689 3215
4060 3216
4508 3217
4280 3218
4406 3219
3780 3222
4672 3222
3566 3225
4528 3225
4798 3225
3239 3229
3381 3229
3988 3229
4170 3229
3554 3231
3537 3236
3241 3237
4021 3237
4104 3237
4662 3237
3993 3238
3639 3239
3658 3239
3872 3239
3989 3239
4180 3239
4800 3239
4666 3240
4104 3241
3332 3243
4106 3243
4461 3243
4744 3243
4798 3243
3449 3244
3739 3244
4426 3244
4714 3244
3278 3245
3487 3245
3516 3245
3637 3245
3846 3245
4117 3245
4423 3245
4426 3250
4018 3251
3291 3252
3510 3252
3595 3252
3685 3252
3715 3252
4053 3252
4107 3252
4110 3252
4119 3252
4163 3252
4173 3252
4311 3252
4333 3252
4339 3252
4373 3252
4436 3252
4464 3252
4573 3252
4686 3252
4731 3252
3758 3256
4055 3256
4185 3256
4496 3256
4779 3256
4298 3259
4134 3262
3360 3263
3503 3263
3536 3264
3686 3264
3786 3264
3825 3264
4215 3264
3672 3265
4234 3267
4432 3270
3566 3273
4462 3273
3357 3274
4036 3274
3471 3277
3567 3277
3487 3278
3637 3278
3397 3280
3698 3280
4108 3280
4197 3280
4796 3280
3566 3281
4476 3283
4692 3284
3890 3285
4762 3285
3442 3286
3689 3286
3347 3287
3750 3288
4603 3288
3749 3289
3510 3291
3595 3291
3685 3291
3715 3291
4053 3291
4107 3291
4110 3291
4119 3291
4173 3291
4311 3291
4333 3291
4339 3291
4373 3291
4436 3291
4464 3291
4573 3291
4731 3291
3358 3292
3437 3292
3534 3292
3650 3292
3958 3292
4310 3292
4402 3292
4440 3292
4544 3292
4766 3292
3421 3297
3963 3299
4113 3301
3866 3303
3741 3304
4038 3306
4407 3309
3679 3312
4610 3312
3566 3316
3921 3316
4782 3316
3432 3317
3983 3317
3786 3318
3459 3319
3746 3319
3876 3319
4063 3319
4362 3319
4477 3319
3654 3321
3372 3323
4578 3323
3437 3324
3741 3324
4094 3324
4175 3324
4222 3324
4351 3324
4752 3324
4298 3326
3476 3327
3760 3327
3898 3327
4031 3327
4115 3327
4121 3327
3676 3331
3689 3331
3970 3331
4461 3332
4798 3332
3753 3333
3876 3333
4266 3333
4203 3334
4297 3334
4539 3334
4658 3334
3702 3335
3469 3336
3485 3336
3791 3336
4055 3336
4081 3336
4111 3336
4346 3336
4578 3336
4694 3339
4561 3343
4609 3343
4294 3345
4623 3346
3664 3347
4284 3348
3437 3358
3534 3358
3650 3358
4310 3358
4402 3358
4440 3358
4544 3358
4692 3358
4768 3358
3489 3362
3794 3362
4222 3362
4559 3362
4590 3362
4182 3364
4200 3365
4298 3365
3876 3366
4063 3366
3771 3368
4636 3368
4759 3370
3399 3371
3507 3371
3552 3377
3753 3377
4222 3377
4292 3377
4498 3377
3424 3378
3757 3379
4094 3379
3498 3380
3988 3381
4552 3381
4253 3384
4063 3385
4085 3385
3569 3388
4591 3389
4366 3390
4215 3391
4329 3391
4469 3391
3561 3393
3549 3395
3549 3396
3683 3397
3698 3397
3985 3397
3507 3399
4348 3399
4587 3400
4041 3402
4759 3403
4426 3404
4593 3405
4622 3407
3437 3408
3786 3408
4215 3408
3573 3411
3457 3412
4037 3412
4765 3415
3543 3417
3669 3417
3939 3417
4154 3417
4163 3417
4543 3417
4633 3417
4653 3417
4668 3417
4676 3417
4682 3417
4686 3417
4793 3417
4795 3417
4808 3417
3950 3419
3566 3422
3868 3423
4103 3423
3426 3425
4003 3426
4110 3427
3475 3428
4370 3429
4021 3432
4104 3432
3702 3434
4120 3434
4130 3434
4681 3434
3570 3435
3601 3436
3603 3436
3534 3437
3650 3437
3786 3437
4310 3437
4402 3437
4440 3437
4544 3437
4771 3437
4791 3437
4802 3439
3683 3440
3698 3440
4092 3442
4465 3442
4123 3443
4782 3443
4529 3444
3755 3447
4659 3447
3491 3448
3665 3452
3895 3452
3932 3452
3946 3452
4557 3452
4588 3452
4656 3452
4689 3452
4545 3457
3714 3458
3475 3460
3513 3460
3739 3460
4172 3460
4204 3460
4275 3460
4660 3460
4807 3460
4003 3461
4396 3461
4596 3461
3639 3462
3810 3464
3942 3464
4583 3464
3467 3466
4198 3466
4665 3468
3485 3469
3791 3469
4055 3469
4081 3469
4111 3469
4346 3469
4578 3469
3566 3471
3567 3471
4624 3471
4277 3473
4456 3473
3513 3475
4066 3475
4172 3475
4221 3475
4443 3475
4660 3475
3776 3478
3952 3479
4340 3480
3537 3481
4608 3484
3791 3485
4055 3485
4081 3485
4111 3485
4346 3485
4578 3485
4681 3486
3637 3487
3846 3487
4423 3487
4576 3487
3866 3491
4496 3494
4549 3494
3506 3496
3513 3496
4271 3496
3697 3498
4805 3498
3972 3499
4802 3505
3883 3506
4092 3506
4294 3506
4484 3506
4660 3506
3943 3508
3595 3510
3685 3510
3715 3510
4053 3510
4107 3510
4110 3510
4119 3510
4173 3510
4311 3510
4333 3510
4339 3510
4373 3510
4436 3510
4464 3510
4561 3510
4573 3510
4731 3510
4800 3512
3594 3513
4243 3513
4271 3513
4660 3513
4162 3514
4117 3516
4513 3516
4794 3516
4426 3518
4364 3519
3566 3521
3785 3521
4558 3521
3608 3522
3866 3524
4323 3531
4575 3531
4618 3533
3650 3534
3958 3534
4010 3534
4310 3534
4402 3534
4440 3534
4544 3534
4770 3534
3611 3535
3897 3535
4039 3535
4413 3535
3786 3536
3825 3536
3994 3536
4215 3536
4562 3536
4642 3536
3876 3541
4139 3541
3826 3542
3669 3543
3939 3543
4154 3543
4163 3543
4543 3543
4633 3543
4653 3543
4668 3543
4676 3543
4682 3543
4686 3543
4793 3543
4795 3543
4808 3543
4489 3544
3610 3552
3733 3552
4066 3552
4153 3552
4178 3552
4338 3552
4113 3557
3843 3559
3924 3559
4038 3559
3664 3563
3698 3564
3838 3564
4197 3564
4217 3564
3567 3566
3575 3566
3595 3566
3609 3566
3618 3566
3626 3566
3630 3566
3673 3566
3678 3566
3736 3566
3749 3566
3774 3566
3785 3566
3812 3566
3816 3566
3827 3566
3830 3566
3902 3566
3909 3566
3939 3566
4003 3566
4025 3566
4038 3566
4053 3566
4070 3566
4107 3566
4112 3566
4163 3566
4168 3566
4248 3566
4302 3566
4316 3566
4317 3566
4319 3566
4359 3566
4436 3566
4447 3566
4462 3566
4463 3566
4481 3566
4526 3566
4541 3566
4543 3566
4558 3566
4596 3566
4608 3566
4624 3566
4676 3566
4677 3566
4683 3566
4699 3566
4731 3566
4750 3566
4778 3566
4803 3566
4624 3567
4522 3568
3923 3569
4486 3569
4796 3569
3687 3572
4475 3572
4795 3575
4808 3575
3864 3576
4076 3576
3988 3577
4354 3577
4814 3579
3786 3582
4320 3582
4482 3582
4530 3582
3587 3586
3939 3589
4448 3590
3733 3593
4008 3593
4327 3593
3724 3594
4422 3594
4660 3594
4732 3594
3685 3595
3715 3595
4053 3595
4107 3595
4110 3595
4119 3595
4173 3595
4311 3595
4333 3595
4339 3595
4373 3595
4436 3595
4464 3595
4573 3595
4731 3595
4021 3596
4104 3596
4749 3599
3603 3601
3876 3607
4780 3607
4080 3608
3895 3609
4070 3609
3780 3610
3852 3610
4009 3610
3800 3611
3897 3611
4039 3611
4413 3611
3613 3612
4141 3612
4141 3613
4213 3616
4547 3616
3674 3617
4183 3618
4582 3620
4554 3623
4594 3623
4570 3625
4032 3626
4798 3626
3881 3629
4346 3629
4540 3629
3948 3633
3977 3633
4218 3633
3846 3637
4423 3637
3945 3639
3680 3641
4149 3645
4442 3645
3739 3646
4149 3647
4442 3647
4629 3649
3958 3650
4310 3650
4402 3650
4440 3650
4544 3650
4766 3650
4770 3650
4325 3651
3698 3652
3838 3652
3934 3652
4136 3652
4461 3652
4009 3654
3657 3656
3659 3656
4580 3656
3659 3657
4580 3657
4447 3658
4654 3658
4715 3658
4802 3658
4580 3659
4014 3660
4063 3661
3746 3662
4166 3662
4642 3662
3664 3663
3921 3663
3936 3663
4659 3663
3724 3664
3768 3664
3838 3664
3882 3664
3905 3664
3921 3664
3936 3664
4017 3664
4192 3664
4252 3664
4260 3664
4263 3664
4271 3664
4286 3664
4393 3664
4418 3664
4421 3664
4446 3664
4494 3664
4637 3664
4659 3664
4713 3664
4719 3664
4775 3664
4802 3664
3932 3665
4557 3665
4656 3665
4689 3665
3874 3666
4608 3666
3760 3668
3924 3668
3715 3669
3939 3669
4110 3669
4154 3669
4163 3669
4333 3669
4543 3669
4633 3669
4653 3669
4668 3669
4676 3669
4682 3669
4686 3669
4793 3669
4795 3669
4808 3669
3750 3670
3882 3670
4603 3670
4558 3673
4559 3674
3689 3676
3970 3676
4070 3681
3698 3683
4108 3683
4197 3683
4649 3683
3784 3684
4786 3684
3715 3685
4053 3685
4107 3685
4110 3685
4119 3685
4173 3685
4311 3685
4333 3685
4339 3685
4373 3685
4436 3685
4464 3685
4573 3685
4653 3685
4731 3685
4778 3685
3695 3686
3786 3686
4202 3686
4215 3686
4222 3686
4253 3686
4448 3686
4561 3686
4583 3686
3743 3687
4479 3687
3917 3689
3970 3689
4168 3689
4416 3689
4514 3689
4773 3689
4810 3689
4078 3693
4306 3693
4433 3693
3985 3698
4108 3698
4197 3698
4649 3698
4775 3698
4794 3700
3913 3701
3914 3701
4130 3702
4135 3702
4382 3702
4681 3702
4561 3705
3896 3709
3939 3712
4242 3712
4392 3712
4485 3712
4573 3712
4298 3713
4222 3714
4640 3714
4680 3714
4053 3715
4107 3715
4110 3715
4119 3715
4173 3715
4311 3715
4333 3715
4339 3715
4373 3715
4436 3715
4464 3715
4561 3715
4573 3715
4731 3715
3871 3717
3720 3719
4548 3721
4659 3722
4328 3723
4127 3724
4216 3724
4263 3724
4422 3724
4561 3724
4602 3724
4267 3726
4044 3731
4671 3731
3931 3732
3852 3733
4313 3733
4104 3734
4566 3734
4629 3737
3989 3739
4361 3739
4024 3744
4200 3744
4608 3744
3997 3746
4583 3746
3882 3750
3984 3750
4409 3750
4605 3750
4266 3753
4331 3753
3898 3760
4031 3760
4115 3760
4121 3760
4513 3762
4559 3763
4128 3764
3838 3765
4612 3766
4799 3766
3876 3768
4139 3769
4276 3772
4395 3780
4153 3782
4477 3785
4481 3785
4561 3785
4215 3786
4310 3786
4055 3791
4081 3791
4111 3791
4116 3791
4578 3791
4222 3794
4559 3794
4759 3799
3831 3800
3897 3800
3850 3803
4209 3808
4502 3808
3942 3810
4583 3810
4761 3813
4215 3825
4233 3826
4039 3831
4767 3833
4264 3837
4035 3838
4387 3838
4583 3838
4787 3838
4489 3839
4330 3840
4042 3843
4607 3843
4678 3844
4423 3846
4034 3847
4734 3847
4809 3847
4785 3848
4207 3850
4561 3852
3934 3854
4645 3856
4250 3857
4032 3861
4490 3862
4044 3864
4271 3864
3999 3866
4633 3866
4032 3867
4284 3867
4628 3867
4103 3868
4351 3870
4180 3872
3920 3876
3991 3876
4015 3876
4063 3876
4066 3876
4139 3876
4301 3876
4479 3876
4493 3876
4593 3876
4780 3876
4346 3881
4540 3881
4603 3882
3888 3887
3994 3889
4077 3892
4070 3895
4039 3897
4413 3897
4121 3898
4070 3899
4487 3901
4742 3901
4043 3904
4443 3910
3922 3917
3970 3917
4644 3918
4506 3919
4693 3919
3991 3920
4145 3920
4493 3920
3936 3921
4583 3921
4659 3921
4009 3925
4583 3925
4321 3927
4735 3933
4136 3934
4220 3934
4066 3936
4659 3936
4110 3939
4154 3939
4163 3939
4543 3939
4633 3939
4634 3939
4653 3939
4668 3939
4676 3939
4682 3939
4686 3939
4793 3939
4795 3939
4808 3939
4086 3941
4583 3942
4701 3943
4005 3944
4737 3947
4198 3948
4505 3948
4522 3948
4427 3952
4526 3952
4691 3954
4043 3961
4439 3962
4585 3964
4357 3967
4771 3969
4168 3970
4299 3970
4416 3970
4514 3970
4664 3970
4773 3970
4810 3970
4242 3972
4392 3972
4399 3972
4485 3972
4742 3973
4276 3977
4179 3979
4603 3984
4108 3985
4197 3985
4583 3985
4649 3985
3995 3988
4265 3988
4493 3991
4065 3992
4300 3994
4760 3994
4264 3997
4583 3997
4363 3998
4611 3998
4229 4003
4396 4003
4561 4006
4583 4006
4495 4007
4066 4009
4583 4009
4628 4009
4310 4010
4544 4010
4252 4016
4659 4016
4444 4019
4662 4021
4284 4032
4802 4035
4413 4039
4665 4044
4419 4046
4578 4049
4107 4053
4110 4053
4119 4053
4173 4053
4311 4053
4333 4053
4339 4053
4373 4053
4436 4053
4464 4053
4573 4053
4731 4053
4081 4055
4111 4055
4116 4055
4346 4055
4578 4055
4572 4061
4807 4064
4083 4066
4293 4066
4384 4066
4477 4066
4521 4066
4561 4066
4787 4066
4280 4070
4315 4070
4433 4078
4443 4080
4786 4080
4111 4081
4346 4081
4578 4081
4477 4083
4551 4086
4754 4086
4791 4094
4332 4097
4803 4099
4360 4102
4585 4103
4744 4106
4110 4107
4119 4107
4173 4107
4311 4107
4333 4107
4339 4107
4373 4107
4436 4107
4464 4107
4573 4107
4653 4107
4731 4107
4778 4107
4795 4107
4808 4107
4197 4108
4261 4108
4538 4108
4616 4109
4119 4110
4173 4110
4311 4110
4333 4110
4339 4110
4373 4110
4436 4110
4464 4110
4561 4110
4573 4110
4676 4110
4731 4110
4778 4110
4808 4110
4578 4111
4121 4115
4346 4116
4578 4116
4583 4117
4173 4119
4311 4119
4333 4119
4339 4119
4373 4119
4436 4119
4464 4119
4573 4119
4731 4119
4782 4123
4587 4126
4135 4130
4382 4130
4681 4130
4365 4132
4681 4135
4181 4137
4648 4139
4426 4140
4612 4142
4360 4146
4313 4148
4426 4150
4304 4153
4163 4154
4543 4154
4633 4154
4653 4154
4668 4154
4676 4154
4682 4154
4686 4154
4793 4154
4795 4154
4808 4154
4756 4156
4699 4161
4543 4163
4573 4163
4633 4163
4653 4163
4668 4163
4676 4163
4682 4163
4686 4163
4793 4163
4795 4163
4808 4163
4271 4167
4311 4173
4333 4173
4339 4173
4373 4173
4436 4173
4464 4173
4573 4173
4653 4173
4731 4173
4778 4173
4490 4177
4751 4177
4773 4178
4560 4181
4746 4181
4243 4184
4634 4184
4684 4185
4659 4192
4522 4198
4426 4199
4608 4200
4222 4202
4310 4202
4487 4202
4297 4203
4532 4203
4539 4203
4650 4203
4658 4203
4679 4203
4243 4204
4338 4204
4547 4213
4426 4214
4642 4215
4405 4217
4253 4222
4362 4222
4448 4222
4561 4222
4725 4222
4300 4225
4652 4225
4578 4231
4392 4242
4399 4242
4485 4242
4660 4243
4426 4246
4608 4248
4629 4248
4418 4252
4536 4252
4659 4252
4775 4252
4400 4258
4271 4263
4446 4263
4380 4265
4432 4265
4310 4269
4659 4271
4660 4271
4676 4271
4721 4271
4370 4276
4432 4276
4659 4286
4561 4293
4532 4297
4539 4297
4574 4297
4578 4297
4650 4297
4658 4297
4679 4297
4519 4298
4479 4301
4801 4303
4402 4310
4440 4310
4544 4310
4333 4311
4339 4311
4373 4311
4436 4311
4464 4311
4573 4311
4731 4311
4555 4321
4707 4321
4575 4323
4685 4326
4339 4333
4373 4333
4436 4333
4464 4333
4573 4333
4668 4333
4676 4333
4731 4333
4778 4333
4795 4333
4606 4334
4373 4339
4436 4339
4464 4339
4573 4339
4731 4339
4540 4346
4578 4346
4433 4347
4559 4353
4608 4359
4538 4360
4401 4365
4428 4372
4436 4373
4464 4373
4573 4373
4731 4373
4412 4376
4499 4377
4681 4382
4477 4384
4561 4387
4635 4387
4399 4392
4485 4392
4561 4392
4659 4393
4813 4394
4485 4399
4440 4402
4544 4402
4542 4406
4802 4408
4620 4413
4659 4418
4759 4420
4583 4422
4732 4422
4576 4423
4526 4427
4803 4427
4665 4432
4464 4436
4573 4436
4731 4436
4544 4440
4706 4440
4802 4447
4642 4448
4511 4454
4573 4464
4731 4464
4561 4465
4626 4467
4521 4477
4583 4477
4787 4477
4781 4478
4489 4480
4742 4487
4751 4490
4634 4495
4550 4497
4561 4503
4758 4504
4806 4508
4794 4513
4740 4517
4569 4522
4578 4525
4677 4526
4803 4526
4560 4527
4539 4532
4650 4532
4658 4539
4633 4543
4653 4543
4668 4543
4676 4543
4682 4543
4686 4543
4793 4543
4795 4543
4808 4543
4766 4544
4770 4544
4707 4555
4656 4557
4689 4557
4609 4561
4759 4563
4578 4571
4731 4573
4808 4573
4647 4577
4809 4578
4628 4583
4616 4585
4790 4589
4732 4591
4615 4598
4798 4600
4605 4603
4763 4611
4799 4612
4653 4633
4668 4633
4676 4633
4682 4633
4686 4633
4793 4633
4795 4633
4808 4633
4668 4653
4676 4653
4682 4653
4686 4653
4778 4653
4793 4653
4795 4653
4808 4653
4802 4654
4747 4655
4689 4656
4775 4659
4759 4664
4676 4668
4682 4668
4686 4668
4793 4668
4795 4668
4808 4668
4682 4676
4686 4676
4793 4676
4795 4676
4808 4676
4686 4682
4793 4682
4795 4682
4808 4682
4731 4686
4793 4686
4795 4686
4808 4686
4785 4693
4798 4744
4812 4779
4795 4793
4808 4793
4808 4795
